 C Cr  H Mo  S                          
   1.00000000000000     
    15.9000000000000004    0.0000000000000000    0.0000000000000000
    -7.9500000000000037   13.7698039201725724    0.0000000000000000
     0.0000000000000000    0.0000000000000000   32.3799999999999955
   C    Cr   H    Mo   S 
    10     1    10    50   100
Selective dynamics
Direct
  0.4814808810747643  0.3504771006530255  0.3859719807840776   T   T   F
  0.4190945746515380  0.2802299896473207  0.4152294251242097   T   T   F
  0.5691564333904191  0.4178203540274331  0.4063672371611631   T   T   F
  0.5615779608894785  0.3888235498485146  0.4489713813623055   T   T   F
  0.4676607735374730  0.3029781471267346  0.4543589720034191   T   T   F
  0.3308277890914722  0.4428392462901340  0.4352178189672316   T   T   F
  0.4449445440754505  0.5076177729280842  0.4880220008882503   T   T   F
  0.3508514079815244  0.4279336134080032  0.4772867617663721   T   T   F
  0.4819752148801190  0.5706117630856602  0.4532110845274104   T   T   F
  0.4126064270426465  0.5312494495883565  0.4207215476323825   T   T   F
  0.4523749079660334  0.4229941426677225  0.4376399784795950   T   T   F
  0.4393286727126803  0.2620036022861312  0.4827923547871436   T   T   F
  0.3024956567026904  0.3688584089932288  0.4975670060518098   T   T   F
  0.2649274862816486  0.3967581267171761  0.4179038622751889   T   T   F
  0.4822217866216322  0.5171315301694875  0.5173331022522945   T   T   F
  0.5537050581369618  0.6348247506139368  0.4510871319184417   T   T   F
  0.3456408179731097  0.2215476908073067  0.4092349896916758   T   T   F
  0.4631209277926956  0.3552987943223404  0.3539710524292659   T   T   F
  0.6304467237921881  0.4805026070463820  0.3921599722779732   T   T   F
  0.6175944333429093  0.4234447500884476  0.4723961831463583   T   T   F
  0.4216279897508603  0.5616057266363139  0.3898796714404895   T   T   F
  0.6000193621923233  0.6000418728356272  0.6573502161828273   T   T   F
  0.2000000000000028  0.7999999999999972  0.2191167387276067   F   F   F
  0.2000172095704854  0.5999953747789899  0.6573502161828273   T   T   F
  0.6000000000000014  0.7999999999999972  0.2191167387276067   F   F   F
  0.2000000000000028  0.6000000000000014  0.2191167387276067   F   F   F
  0.6000041030219356  0.7999993540047737  0.6573502161828273   T   T   F
  0.2000000000000028  0.3999999999999986  0.2191167387276067   F   F   F
  0.7999999999999972  0.0000000000000000  0.2191167387276067   F   F   F
  0.1999930757967016  0.1999975361017236  0.6573502161828273   T   T   F
  0.8000046819355007  0.0000085073361738  0.6573502161828273   T   T   F
  0.2000000000000028  0.2000000000000028  0.2191167387276067   F   F   F
  0.1999995651989139  0.8000018513246627  0.6573502161828273   T   T   F
  0.2000211813972764  0.4000107844044289  0.6573502161828273   T   T   F
  0.6000000000000014  0.6000000000000014  0.2191167387276067   F   F   F
  0.3999999999999986  0.6000000000000014  0.2191167387276067   F   F   F
  0.3999851932591648 -0.0000018826380011  0.6573502161828273   T   T   F
  0.6000007408266125  0.3999909350160208  0.6573502161828273   T   T   F
  0.3999999999999986  0.2000000000000028  0.2191167387276067   F   F   F
  0.6000000000000014  0.3999999999999986  0.2191167387276067   F   F   F
  0.3999948713373149  0.2000065349539916  0.6573502161828273   T   T   F
  0.3999999999999986  0.3999999999999986  0.2191167387276067   F   F   F
  0.6000076384046372  0.2000002408133207  0.6573502161828273   T   T   F
  0.3999511947064980  0.3999930036935590  0.6573502161828273   T   T   F
  0.6000000000000014  0.2000000000000028  0.2191167387276067   F   F   F
  0.4000045988937722  0.7999837357152499  0.6573502161828273   T   T   F
  0.3999854539350154  0.5999798641531529  0.6573502161828273   T   T   F
  0.6000256432115926 -0.0000001640872633  0.6573502161828273   T   T   F
  0.3999999999999986  0.7999999999999972  0.2191167387276067   F   F   F
  0.6000000000000014  0.0000000000000000  0.2191167387276067   F   F   F
  0.3999999999999986  0.0000000000000000  0.2191167387276067   F   F   F
  0.7999999999999972  0.2000000000000028  0.2191167387276067   F   F   F
  0.1999991805651457  0.0000084618923462  0.6573502161828273   T   T   F
  0.2000000000000028  0.0000000000000000  0.2191167387276067   F   F   F
  0.0000000000000000  0.0000000000000000  0.2191167387276067   F   F   F
  0.7999994549555312  0.8000089696330434  0.6573502161828273   T   T   F
 -0.0000051429305197  0.0000040813524919  0.6573502161828273   T   T   F
  0.7999999999999972  0.7999999999999972  0.2191167387276067   F   F   F
  0.0000000000000000  0.2000000000000028  0.2191167387276067   F   F   F
 -0.0000112455612065  0.1999926460294983  0.6573502161828273   T   T   F
  0.7999973879684811  0.6000074486980067  0.6573502161828273   T   T   F
  0.0000000000000000  0.3999999999999986  0.2191167387276067   F   F   F
  0.0000039580521779  0.3999707863218872  0.6573502161828273   T   T   F
  0.0000000000000000  0.6000000000000014  0.2191167387276067   F   F   F
  0.7999951516506771  0.3999865592728539  0.6573502161828273   T   T   F
  0.0000021891662699  0.6000199846292972  0.6573502161828273   T   T   F
  0.7999999999999972  0.6000000000000014  0.2191167387276067   F   F   F
  0.7999999999999972  0.3999999999999986  0.2191167387276067   F   F   F
 -0.0000064692555395  0.8000023467353330  0.6573502161828273   T   T   F
  0.0000000000000000  0.7999999999999972  0.2191167387276067   F   F   F
  0.8000070672594719  0.1999903302326932  0.6573502161828273   T   T   F
  0.9333333333333300  0.0666666666666700  0.1698579369981488   F   F   F
  0.7333384622378667  0.2666560444482788  0.6080914144533693   T   T   F
  0.7333347223797090  0.2666603585892955  0.7066090179122924   T   T   F
  0.9333293996267057  0.6666723791663068  0.7066090179122924   T   T   F
  0.9333395406611643  0.6666736329690937  0.6080914144533693   T   T   F
  0.7333333333333343  0.2666666666666657  0.1698579369981488   F   F   F
  0.7333333333333343  0.2666666666666657  0.2683755404570718   F   F   F
  0.9333333333333371  0.4666666666666686  0.2683755404570718   F   F   F
  0.7333373009293191  0.0666676077466118  0.6080914144533693   T   T   F
  0.7333418553883094  0.0666670814612890  0.7066090179122924   T   T   F
  0.9333316727189803  0.0666683471358806  0.7066090179122924   T   T   F
  0.9333333333333371  0.8666666666666671  0.1698579369981488   F   F   F
  0.7333333333333343  0.0666666666666700  0.1698579369981488   F   F   F
  0.9333266354779651  0.0666656367655195  0.6080914144533693   T   T   F
  0.7333333333333343  0.0666666666666700  0.2683755404570718   F   F   F
  0.9333333333333300  0.2666666666666657  0.1698579369981488   F   F   F
  0.9333320093464506  0.2666534846076851  0.7066090179122924   T   T   F
  0.9333333333333371  0.8666666666666671  0.2683755404570718   F   F   F
  0.7333333333333343  0.4666666666666686  0.2683755404570718   F   F   F
  0.7333333333333343  0.4666666666666686  0.1698579369981488   F   F   F
  0.7333333333333343  0.8666666666666671  0.1698579369981488   F   F   F
  0.7333320863909584  0.8666712307783379  0.7066090179122924   T   T   F
  0.7333333333333343  0.8666666666666671  0.2683755404570718   F   F   F
  0.9333333333333371  0.4666666666666686  0.1698579369981488   F   F   F
  0.7333352240301023  0.8666779999102273  0.6080914144533693   T   T   F
  0.7333402202186411  0.6666825993981903  0.6080914144533693   T   T   F
  0.7333355709614280  0.6666764043255103  0.7066090179122924   T   T   F
  0.9333348434116256  0.4666643508202079  0.7066090179122924   T   T   F
  0.7333333333333343  0.6666666666666643  0.1698579369981488   F   F   F
  0.9333462232559094  0.4666650784200865  0.6080914144533693   T   T   F
  0.7333333333333343  0.6666666666666643  0.2683755404570718   F   F   F
  0.9333318151745312  0.2666618290190682  0.6080914144533693   T   T   F
  0.9333333333333300  0.2666666666666657  0.2683755404570718   F   F   F
  0.7333378877502225  0.4666598388584160  0.6080914144533693   T   T   F
  0.7333257968978176  0.4666597600987447  0.7066090179122924   T   T   F
  0.9333333333333371  0.6666666666666643  0.2683755404570718   F   F   F
  0.9333333333333300  0.0666666666666700  0.2683755404570718   F   F   F
  0.9333333333333371  0.6666666666666643  0.1698579369981488   F   F   F
  0.5333346053284658  0.8666664425715809  0.6080914144533693   T   T   F
  0.5333364751378348  0.0666657890954800  0.7066090179122924   T   T   F
  0.5333333333333314  0.8666666666666671  0.1698579369981488   F   F   F
  0.3333333333333357  0.2666666666666657  0.1698579369981488   F   F   F
  0.3333333333333357  0.2666666666666657  0.2683755404570718   F   F   F
  0.3333323041707228  0.0666655683312871  0.6080914144533693   T   T   F
  0.3333308117881828  0.0666729053109964  0.7066090179122924   T   T   F
  0.3333333333333357  0.0666666666666700  0.1698579369981488   F   F   F
  0.3333333333333357  0.0666666666666700  0.2683755404570718   F   F   F
  0.1333317068307557  0.8666639635894861  0.6080914144533693   T   T   F
  0.1333316857538723  0.8666705093008649  0.7066090179122924   T   T   F
  0.1333333333333329  0.8666666666666671  0.1698579369981488   F   F   F
  0.1333333333333329  0.8666666666666671  0.2683755404570718   F   F   F
  0.1333442266535044  0.6666642525503993  0.6080914144533693   T   T   F
  0.1333347402957725  0.6666676957097433  0.7066090179122924   T   T   F
  0.3333235983165170  0.2666661708489055  0.7066090179122924   T   T   F
  0.1333333333333329  0.6666666666666643  0.1698579369981488   F   F   F
  0.1333423538998856  0.4666671288887688  0.6080914144533693   T   T   F
  0.1333343784744213  0.4666537405433732  0.7066090179122924   T   T   F
  0.1333333333333329  0.4666666666666686  0.1698579369981488   F   F   F
  0.1333333333333329  0.4666666666666686  0.2683755404570718   F   F   F
  0.1333543877212008  0.2666907809669611  0.6080914144533693   T   T   F
  0.1333306778494843  0.2666685108523236  0.7066090179122924   T   T   F
  0.1333333333333329  0.2666666666666657  0.1698579369981488   F   F   F
  0.1333333333333329  0.2666666666666657  0.2683755404570718   F   F   F
  0.1333265843838080  0.0666635345591906  0.6080914144533693   T   T   F
  0.1333315880909745  0.0666709038693991  0.7066090179122924   T   T   F
  0.1333333333333329  0.0666666666666700  0.1698579369981488   F   F   F
  0.1333333333333329  0.0666666666666700  0.2683755404570718   F   F   F
  0.1333333333333329  0.6666666666666643  0.2683755404570718   F   F   F
  0.3333207271048093  0.2666895532290844  0.6080914144533693   T   T   F
  0.3333333333333357  0.4666666666666686  0.2683755404570718   F   F   F
  0.3333333333333357  0.4666666666666686  0.1698579369981488   F   F   F
  0.5333333333333314  0.8666666666666671  0.2683755404570718   F   F   F
  0.5332910899823602  0.6666256442870759  0.6080914144533693   T   T   F
  0.5333357613151729  0.6666679657774987  0.7066090179122924   T   T   F
  0.5333333333333314  0.6666666666666643  0.1698579369981488   F   F   F
  0.5333333333333314  0.6666666666666643  0.2683755404570718   F   F   F
  0.5332948059421637  0.4666991937358486  0.6080914144533693   T   T   F
  0.5333266308296734  0.4666714254601801  0.7066090179122924   T   T   F
  0.5333333333333314  0.4666666666666686  0.1698579369981488   F   F   F
  0.5333333333333314  0.4666666666666686  0.2683755404570718   F   F   F
  0.5333291271728120  0.2666580468654932  0.6080914144533693   T   T   F
  0.5333363129895449  0.2666690933024082  0.7066090179122924   T   T   F
  0.5333333333333314  0.2666666666666657  0.1698579369981488   F   F   F
  0.5333333333333314  0.2666666666666657  0.2683755404570718   F   F   F
  0.5333379001791936  0.0666588013414869  0.6080914144533693   T   T   F
  0.9333291810102093  0.8666689784246647  0.7066090179122924   T   T   F
  0.5333333333333314  0.0666666666666700  0.1698579369981488   F   F   F
  0.5333333333333314  0.0666666666666700  0.2683755404570718   F   F   F
  0.3333327169718496  0.8666534132503858  0.6080914144533693   T   T   F
  0.3333321023488708  0.8666666324304108  0.7066090179122924   T   T   F
  0.3333333333333357  0.8666666666666671  0.1698579369981488   F   F   F
  0.3333333333333357  0.8666666666666671  0.2683755404570718   F   F   F
  0.3333340561457380  0.6666562207017306  0.6080914144533693   T   T   F
  0.3333380522132084  0.6666617677618543  0.7066090179122924   T   T   F
  0.3333333333333357  0.6666666666666643  0.1698579369981488   F   F   F
  0.3333333333333357  0.6666666666666643  0.2683755404570718   F   F   F
  0.3333347379245179  0.4666677921554466  0.6080914144533693   T   T   F
  0.3333330038991469  0.4666603232628710  0.7066090179122924   T   T   F
  0.5333480536516051  0.8666680616348310  0.7066090179122924   T   T   F
  0.9333329739632497  0.8666708287136872  0.6080914144533693   T   T   F
 
  0.00000000E+00  0.00000000E+00  0.00000000E+00
  0.00000000E+00  0.00000000E+00  0.00000000E+00
  0.00000000E+00  0.00000000E+00  0.00000000E+00
  0.00000000E+00  0.00000000E+00  0.00000000E+00
  0.00000000E+00  0.00000000E+00  0.00000000E+00
  0.00000000E+00  0.00000000E+00  0.00000000E+00
  0.00000000E+00  0.00000000E+00  0.00000000E+00
  0.00000000E+00  0.00000000E+00  0.00000000E+00
  0.00000000E+00  0.00000000E+00  0.00000000E+00
  0.00000000E+00  0.00000000E+00  0.00000000E+00
  0.00000000E+00  0.00000000E+00  0.00000000E+00
  0.00000000E+00  0.00000000E+00  0.00000000E+00
  0.00000000E+00  0.00000000E+00  0.00000000E+00
  0.00000000E+00  0.00000000E+00  0.00000000E+00
  0.00000000E+00  0.00000000E+00  0.00000000E+00
  0.00000000E+00  0.00000000E+00  0.00000000E+00
  0.00000000E+00  0.00000000E+00  0.00000000E+00
  0.00000000E+00  0.00000000E+00  0.00000000E+00
  0.00000000E+00  0.00000000E+00  0.00000000E+00
  0.00000000E+00  0.00000000E+00  0.00000000E+00
  0.00000000E+00  0.00000000E+00  0.00000000E+00
  0.00000000E+00  0.00000000E+00  0.00000000E+00
  0.00000000E+00  0.00000000E+00  0.00000000E+00
  0.00000000E+00  0.00000000E+00  0.00000000E+00
  0.00000000E+00  0.00000000E+00  0.00000000E+00
  0.00000000E+00  0.00000000E+00  0.00000000E+00
  0.00000000E+00  0.00000000E+00  0.00000000E+00
  0.00000000E+00  0.00000000E+00  0.00000000E+00
  0.00000000E+00  0.00000000E+00  0.00000000E+00
  0.00000000E+00  0.00000000E+00  0.00000000E+00
  0.00000000E+00  0.00000000E+00  0.00000000E+00
  0.00000000E+00  0.00000000E+00  0.00000000E+00
  0.00000000E+00  0.00000000E+00  0.00000000E+00
  0.00000000E+00  0.00000000E+00  0.00000000E+00
  0.00000000E+00  0.00000000E+00  0.00000000E+00
  0.00000000E+00  0.00000000E+00  0.00000000E+00
  0.00000000E+00  0.00000000E+00  0.00000000E+00
  0.00000000E+00  0.00000000E+00  0.00000000E+00
  0.00000000E+00  0.00000000E+00  0.00000000E+00
  0.00000000E+00  0.00000000E+00  0.00000000E+00
  0.00000000E+00  0.00000000E+00  0.00000000E+00
  0.00000000E+00  0.00000000E+00  0.00000000E+00
  0.00000000E+00  0.00000000E+00  0.00000000E+00
  0.00000000E+00  0.00000000E+00  0.00000000E+00
  0.00000000E+00  0.00000000E+00  0.00000000E+00
  0.00000000E+00  0.00000000E+00  0.00000000E+00
  0.00000000E+00  0.00000000E+00  0.00000000E+00
  0.00000000E+00  0.00000000E+00  0.00000000E+00
  0.00000000E+00  0.00000000E+00  0.00000000E+00
  0.00000000E+00  0.00000000E+00  0.00000000E+00
  0.00000000E+00  0.00000000E+00  0.00000000E+00
  0.00000000E+00  0.00000000E+00  0.00000000E+00
  0.00000000E+00  0.00000000E+00  0.00000000E+00
  0.00000000E+00  0.00000000E+00  0.00000000E+00
  0.00000000E+00  0.00000000E+00  0.00000000E+00
  0.00000000E+00  0.00000000E+00  0.00000000E+00
  0.00000000E+00  0.00000000E+00  0.00000000E+00
  0.00000000E+00  0.00000000E+00  0.00000000E+00
  0.00000000E+00  0.00000000E+00  0.00000000E+00
  0.00000000E+00  0.00000000E+00  0.00000000E+00
  0.00000000E+00  0.00000000E+00  0.00000000E+00
  0.00000000E+00  0.00000000E+00  0.00000000E+00
  0.00000000E+00  0.00000000E+00  0.00000000E+00
  0.00000000E+00  0.00000000E+00  0.00000000E+00
  0.00000000E+00  0.00000000E+00  0.00000000E+00
  0.00000000E+00  0.00000000E+00  0.00000000E+00
  0.00000000E+00  0.00000000E+00  0.00000000E+00
  0.00000000E+00  0.00000000E+00  0.00000000E+00
  0.00000000E+00  0.00000000E+00  0.00000000E+00
  0.00000000E+00  0.00000000E+00  0.00000000E+00
  0.00000000E+00  0.00000000E+00  0.00000000E+00
  0.00000000E+00  0.00000000E+00  0.00000000E+00
  0.00000000E+00  0.00000000E+00  0.00000000E+00
  0.00000000E+00  0.00000000E+00  0.00000000E+00
  0.00000000E+00  0.00000000E+00  0.00000000E+00
  0.00000000E+00  0.00000000E+00  0.00000000E+00
  0.00000000E+00  0.00000000E+00  0.00000000E+00
  0.00000000E+00  0.00000000E+00  0.00000000E+00
  0.00000000E+00  0.00000000E+00  0.00000000E+00
  0.00000000E+00  0.00000000E+00  0.00000000E+00
  0.00000000E+00  0.00000000E+00  0.00000000E+00
  0.00000000E+00  0.00000000E+00  0.00000000E+00
  0.00000000E+00  0.00000000E+00  0.00000000E+00
  0.00000000E+00  0.00000000E+00  0.00000000E+00
  0.00000000E+00  0.00000000E+00  0.00000000E+00
  0.00000000E+00  0.00000000E+00  0.00000000E+00
  0.00000000E+00  0.00000000E+00  0.00000000E+00
  0.00000000E+00  0.00000000E+00  0.00000000E+00
  0.00000000E+00  0.00000000E+00  0.00000000E+00
  0.00000000E+00  0.00000000E+00  0.00000000E+00
  0.00000000E+00  0.00000000E+00  0.00000000E+00
  0.00000000E+00  0.00000000E+00  0.00000000E+00
  0.00000000E+00  0.00000000E+00  0.00000000E+00
  0.00000000E+00  0.00000000E+00  0.00000000E+00
  0.00000000E+00  0.00000000E+00  0.00000000E+00
  0.00000000E+00  0.00000000E+00  0.00000000E+00
  0.00000000E+00  0.00000000E+00  0.00000000E+00
  0.00000000E+00  0.00000000E+00  0.00000000E+00
  0.00000000E+00  0.00000000E+00  0.00000000E+00
  0.00000000E+00  0.00000000E+00  0.00000000E+00
  0.00000000E+00  0.00000000E+00  0.00000000E+00
  0.00000000E+00  0.00000000E+00  0.00000000E+00
  0.00000000E+00  0.00000000E+00  0.00000000E+00
  0.00000000E+00  0.00000000E+00  0.00000000E+00
  0.00000000E+00  0.00000000E+00  0.00000000E+00
  0.00000000E+00  0.00000000E+00  0.00000000E+00
  0.00000000E+00  0.00000000E+00  0.00000000E+00
  0.00000000E+00  0.00000000E+00  0.00000000E+00
  0.00000000E+00  0.00000000E+00  0.00000000E+00
  0.00000000E+00  0.00000000E+00  0.00000000E+00
  0.00000000E+00  0.00000000E+00  0.00000000E+00
  0.00000000E+00  0.00000000E+00  0.00000000E+00
  0.00000000E+00  0.00000000E+00  0.00000000E+00
  0.00000000E+00  0.00000000E+00  0.00000000E+00
  0.00000000E+00  0.00000000E+00  0.00000000E+00
  0.00000000E+00  0.00000000E+00  0.00000000E+00
  0.00000000E+00  0.00000000E+00  0.00000000E+00
  0.00000000E+00  0.00000000E+00  0.00000000E+00
  0.00000000E+00  0.00000000E+00  0.00000000E+00
  0.00000000E+00  0.00000000E+00  0.00000000E+00
  0.00000000E+00  0.00000000E+00  0.00000000E+00
  0.00000000E+00  0.00000000E+00  0.00000000E+00
  0.00000000E+00  0.00000000E+00  0.00000000E+00
  0.00000000E+00  0.00000000E+00  0.00000000E+00
  0.00000000E+00  0.00000000E+00  0.00000000E+00
  0.00000000E+00  0.00000000E+00  0.00000000E+00
  0.00000000E+00  0.00000000E+00  0.00000000E+00
  0.00000000E+00  0.00000000E+00  0.00000000E+00
  0.00000000E+00  0.00000000E+00  0.00000000E+00
  0.00000000E+00  0.00000000E+00  0.00000000E+00
  0.00000000E+00  0.00000000E+00  0.00000000E+00
  0.00000000E+00  0.00000000E+00  0.00000000E+00
  0.00000000E+00  0.00000000E+00  0.00000000E+00
  0.00000000E+00  0.00000000E+00  0.00000000E+00
  0.00000000E+00  0.00000000E+00  0.00000000E+00
  0.00000000E+00  0.00000000E+00  0.00000000E+00
  0.00000000E+00  0.00000000E+00  0.00000000E+00
  0.00000000E+00  0.00000000E+00  0.00000000E+00
  0.00000000E+00  0.00000000E+00  0.00000000E+00
  0.00000000E+00  0.00000000E+00  0.00000000E+00
  0.00000000E+00  0.00000000E+00  0.00000000E+00
  0.00000000E+00  0.00000000E+00  0.00000000E+00
  0.00000000E+00  0.00000000E+00  0.00000000E+00
  0.00000000E+00  0.00000000E+00  0.00000000E+00
  0.00000000E+00  0.00000000E+00  0.00000000E+00
  0.00000000E+00  0.00000000E+00  0.00000000E+00
  0.00000000E+00  0.00000000E+00  0.00000000E+00
  0.00000000E+00  0.00000000E+00  0.00000000E+00
  0.00000000E+00  0.00000000E+00  0.00000000E+00
  0.00000000E+00  0.00000000E+00  0.00000000E+00
  0.00000000E+00  0.00000000E+00  0.00000000E+00
  0.00000000E+00  0.00000000E+00  0.00000000E+00
  0.00000000E+00  0.00000000E+00  0.00000000E+00
  0.00000000E+00  0.00000000E+00  0.00000000E+00
  0.00000000E+00  0.00000000E+00  0.00000000E+00
  0.00000000E+00  0.00000000E+00  0.00000000E+00
  0.00000000E+00  0.00000000E+00  0.00000000E+00
  0.00000000E+00  0.00000000E+00  0.00000000E+00
  0.00000000E+00  0.00000000E+00  0.00000000E+00
  0.00000000E+00  0.00000000E+00  0.00000000E+00
  0.00000000E+00  0.00000000E+00  0.00000000E+00
  0.00000000E+00  0.00000000E+00  0.00000000E+00
  0.00000000E+00  0.00000000E+00  0.00000000E+00
  0.00000000E+00  0.00000000E+00  0.00000000E+00
  0.00000000E+00  0.00000000E+00  0.00000000E+00
  0.00000000E+00  0.00000000E+00  0.00000000E+00
  0.00000000E+00  0.00000000E+00  0.00000000E+00
  0.00000000E+00  0.00000000E+00  0.00000000E+00
  0.00000000E+00  0.00000000E+00  0.00000000E+00
  0.00000000E+00  0.00000000E+00  0.00000000E+00
  0.00000000E+00  0.00000000E+00  0.00000000E+00
