cobaltocene.pdb                         
   1.00000000000000     
    20.0000000000000000    0.0000000000000000    0.0000000000000000
     0.0000000000000000   20.0000000000000000    0.0000000000000000
     0.0000000000000000    0.0000000000000000   20.0000000000000000
   Co   C    H    C    H 
     1     5     4     5     6
Direct
  0.8287607481999177  0.1602207529011755  0.9016861845229773
  0.8291633008640866  0.2124419480619509 -0.0078069429656262
  0.8721188821768170  0.2446895824568083  0.9448943413539383
  0.8533133176450374  0.1457733588812312  0.0021126358336469
  0.9113482300056871  0.1369051541073517  0.9611004552283032
  0.9229018409054464  0.1979867882694726  0.9256749186283835
  0.9406543977226079  0.0913573101227383  0.9564029541231888
  0.8308591260765739  0.1081789765000136  0.0343390803930438
  0.7851101676321418  0.2343236782645495  0.0153434786211674
  0.8663597936231457  0.2952894605946829  0.9258443266185299
  0.7564566261143981  0.1888957445667805  0.8320537717621033
  0.8253036855690403  0.0966048637807906  0.8190384663510517
  0.8147648711491422  0.1643647124264391  0.7984877418078279
  0.7736216480661756  0.0793244987106974  0.8654909718101147
  0.7310473045765035  0.1363691023919777  0.8734661307958360
  0.6877942679783144  0.1396709860973250  0.9062264294291443
  0.8663161714774673  0.0645489242498178  0.8033645499582894
  0.7682338122102620  0.0316055541362654  0.8909950690813889
  0.7359058563957672  0.2390638721362551  0.8279589036002144
  0.8462361225828765  0.1927077426243965  0.7643915212327003
  0.9624798290285960  0.2067269887192794  0.8894350118137787
 
  0.00000000E+00  0.00000000E+00  0.00000000E+00
  0.00000000E+00  0.00000000E+00  0.00000000E+00
  0.00000000E+00  0.00000000E+00  0.00000000E+00
  0.00000000E+00  0.00000000E+00  0.00000000E+00
  0.00000000E+00  0.00000000E+00  0.00000000E+00
  0.00000000E+00  0.00000000E+00  0.00000000E+00
  0.00000000E+00  0.00000000E+00  0.00000000E+00
  0.00000000E+00  0.00000000E+00  0.00000000E+00
  0.00000000E+00  0.00000000E+00  0.00000000E+00
  0.00000000E+00  0.00000000E+00  0.00000000E+00
  0.00000000E+00  0.00000000E+00  0.00000000E+00
  0.00000000E+00  0.00000000E+00  0.00000000E+00
  0.00000000E+00  0.00000000E+00  0.00000000E+00
  0.00000000E+00  0.00000000E+00  0.00000000E+00
  0.00000000E+00  0.00000000E+00  0.00000000E+00
  0.00000000E+00  0.00000000E+00  0.00000000E+00
  0.00000000E+00  0.00000000E+00  0.00000000E+00
  0.00000000E+00  0.00000000E+00  0.00000000E+00
  0.00000000E+00  0.00000000E+00  0.00000000E+00
  0.00000000E+00  0.00000000E+00  0.00000000E+00
  0.00000000E+00  0.00000000E+00  0.00000000E+00
