 C Cr  H Mo  S 
 1.0000000000000000
    15.9000000000000004    0.0000000000000000    0.0000000000000000
    -7.9500000000000037   13.7698039201725724    0.0000000000000000
     0.0000000000000000    0.0000000000000000   54.3800000000000026
  10   1  10  50 100
Cartesian
 -4.7999851079827884 11.8442971363350864 53.3707384603600445
 -5.1621475923854812 11.8564502617016991  0.3662031320167833
 -3.5910190112856468 12.5860612427414491 53.2145350220371185
 -3.1902585500298906 13.0644337710509486  0.1332038750471386
 -4.1760625630545789 12.6083198811231494  1.0855649108780114
  1.0039853192237700  1.0674392394603331 53.9646477143749124
  2.9110248002344061  2.2380813185733452  0.2186054793892722
  1.7473969681260795  1.5583961064107887  0.7222025561065619
  2.8816833083726210  2.1716979111005776 53.1748463306643160
  1.7181887778249216  1.4527025195540253 52.7800877772518504
  2.9041015571620616  0.1532241694164776 54.0619121745152427
 -4.1631316941070446 12.7843189348899067  2.1584944168345910
  1.4612683577164054  1.4657217461081122  1.7669357134635184
  0.0586851225674429  0.5307108008642373 53.9949975732144267
  3.6897170066840692  2.7039046597073919  0.8177205502130068
  3.6564158240199864  2.5429472905792081 52.5065865818823099
 -6.0599098270517144 11.4124248140086060  0.7902943764164848
 -5.3831380663576915 11.4006305603151574 52.5663155069101151
 -3.0720968990768598 12.7644911805754013 52.2754434105430406
 -2.2881650420833952 13.6277313767256274  0.3593971580960001
  1.4413657014919496  1.2077223882755113 51.7566536399707573
  4.7700000000000005  8.2618823521035445 40.7850000000000037
 -3.1800000000000002 11.0158431361380593 13.5950000000000006
 -1.5900000000000003  8.2618823521035445 40.7850000000000037
  3.1800000000000006 11.0158431361380593 13.5950000000000006
 -1.5900000000000003  8.2618823521035445 13.5950000000000006
  3.1800000000000006 11.0158431361380593 40.7850000000000037
  0.0000000000000000  5.5079215680690297 13.5950000000000006
 12.7200000000000006  0.0000000000000000 13.5950000000000006
  1.5900000000000001  2.7539607840345148 40.7850000000000037
 12.7200000000000006  0.0000000000000000 40.7850000000000037
  1.5900000000000001  2.7539607840345148 13.5950000000000006
 -3.1800000000000002 11.0158431361380593 40.7850000000000037
  0.0000000000000000  5.5079215680690297 40.7850000000000037
  4.7700000000000005  8.2618823521035445 13.5950000000000006
  1.5899999999999999  8.2618823521035445 13.5950000000000006
  6.3600000000000003  0.0000000000000000 40.7850000000000037
  6.3600000000000012  5.5079215680690297 40.7850000000000037
  4.7700000000000005  2.7539607840345148 13.5950000000000006
  6.3600000000000012  5.5079215680690297 13.5950000000000006
  4.7700000000000005  2.7539607840345148 40.7850000000000037
  3.1800000000000002  5.5079215680690297 13.5950000000000006
  7.9500000000000011  2.7539607840345148 40.7850000000000037
  3.1800000000000002  5.5079215680690297 40.7850000000000037
  7.9500000000000011  2.7539607840345148 13.5950000000000006
  0.0000000000000000 11.0158431361380593 40.7850000000000037
  1.5899999999999999  8.2618823521035445 40.7850000000000037
  9.5400000000000009  0.0000000000000000 40.7850000000000037
  0.0000000000000000 11.0158431361380593 13.5950000000000006
  9.5400000000000009  0.0000000000000000 13.5950000000000006
  6.3600000000000003  0.0000000000000000 13.5950000000000006
 11.1300000000000008  2.7539607840345148 13.5950000000000006
  3.1800000000000002  0.0000000000000000 40.7850000000000037
  3.1800000000000002  0.0000000000000000 13.5950000000000006
  0.0000000000000000  0.0000000000000000 13.5950000000000006
  6.3600000000000003 11.0158431361380593 40.7850000000000037
  0.0000000000000000  0.0000000000000000 40.7850000000000037
  6.3600000000000003 11.0158431361380593 13.5950000000000006
 -1.5900000000000001  2.7539607840345148 13.5950000000000006
 -1.5900000000000001  2.7539607840345148 40.7850000000000037
  7.9500000000000002  8.2618823521035445 40.7850000000000037
 -3.1800000000000002  5.5079215680690297 13.5950000000000006
 -3.1800000000000002  5.5079215680690297 40.7850000000000037
 -4.7700000000000005  8.2618823521035445 13.5950000000000006
  9.5400000000000009  5.5079215680690297 40.7850000000000037
 -4.7700000000000005  8.2618823521035445 40.7850000000000037
  7.9500000000000002  8.2618823521035445 13.5950000000000006
  9.5400000000000009  5.5079215680690297 13.5950000000000006
 -6.3600000000000003 11.0158431361380593 40.7850000000000037
 -6.3600000000000003 11.0158431361380593 13.5950000000000006
 11.1300000000000008  2.7539607840345148 40.7850000000000037
 14.3100000000000005  0.9179869280115049 12.0000000000000000
  9.5400000000000009  3.6719477120460198 39.1899999999999977
  9.5400000000000009  3.6719477120460198 42.3800000000000026
  9.5400000000000009  9.1798692801150494 42.3800000000000026
  9.5400000000000009  9.1798692801150494 39.1899999999999977
  9.5400000000000009  3.6719477120460198 12.0000000000000000
  9.5400000000000009  3.6719477120460198 15.1900000000000013
 11.1300000000000008  6.4259084960805346 15.1900000000000013
 11.1300000000000008  0.9179869280115049 39.1899999999999977
 11.1300000000000008  0.9179869280115049 42.3800000000000026
 14.3100000000000005  0.9179869280115049 42.3800000000000026
  7.9500000000000002 11.9338300641495643 12.0000000000000000
 11.1300000000000008  0.9179869280115049 12.0000000000000000
 14.3100000000000005  0.9179869280115049 39.1899999999999977
 11.1300000000000008  0.9179869280115049 15.1900000000000013
 12.7200000000000006  3.6719477120460198 12.0000000000000000
 12.7200000000000006  3.6719477120460198 42.3800000000000026
  7.9500000000000002 11.9338300641495643 15.1900000000000013
  7.9500000000000011  6.4259084960805346 15.1900000000000013
  7.9500000000000011  6.4259084960805346 12.0000000000000000
  4.7700000000000005 11.9338300641495643 12.0000000000000000
  4.7700000000000005 11.9338300641495643 42.3800000000000026
  4.7700000000000005 11.9338300641495643 15.1900000000000013
 11.1300000000000008  6.4259084960805346 12.0000000000000000
  4.7700000000000005 11.9338300641495643 39.1899999999999977
  6.3600000000000003  9.1798692801150494 39.1899999999999977
  6.3600000000000003  9.1798692801150494 42.3800000000000026
 11.1300000000000008  6.4259084960805346 42.3800000000000026
  6.3600000000000003  9.1798692801150494 12.0000000000000000
 11.1300000000000008  6.4259084960805346 39.1899999999999977
  6.3600000000000003  9.1798692801150494 15.1900000000000013
 12.7200000000000006  3.6719477120460198 39.1899999999999977
 12.7200000000000006  3.6719477120460198 15.1900000000000013
  7.9500000000000011  6.4259084960805346 39.1899999999999977
  7.9500000000000011  6.4259084960805346 42.3800000000000026
  9.5400000000000009  9.1798692801150494 15.1900000000000013
 14.3100000000000005  0.9179869280115049 15.1900000000000013
  9.5400000000000009  9.1798692801150494 12.0000000000000000
  1.5900000000000001 11.9338300641495643 39.1899999999999977
  7.9500000000000002  0.9179869280115049 42.3800000000000026
  1.5900000000000001 11.9338300641495643 12.0000000000000000
  3.1800000000000002  3.6719477120460198 12.0000000000000000
  3.1800000000000002  3.6719477120460198 15.1900000000000013
  4.7700000000000005  0.9179869280115049 39.1899999999999977
  4.7700000000000005  0.9179869280115049 42.3800000000000026
  4.7700000000000005  0.9179869280115049 12.0000000000000000
  4.7700000000000005  0.9179869280115049 15.1900000000000013
 -4.7700000000000005 11.9338300641495643 39.1899999999999977
 -4.7700000000000005 11.9338300641495643 42.3800000000000026
 -4.7700000000000005 11.9338300641495643 12.0000000000000000
 -4.7700000000000005 11.9338300641495643 15.1900000000000013
 -3.1800000000000006  9.1798692801150494 39.1899999999999977
 -3.1800000000000006  9.1798692801150494 42.3800000000000026
  3.1800000000000002  3.6719477120460198 42.3800000000000026
 -3.1800000000000006  9.1798692801150494 12.0000000000000000
 -1.5900000000000001  6.4259084960805346 39.1899999999999977
 -1.5900000000000001  6.4259084960805346 42.3800000000000026
 -1.5900000000000001  6.4259084960805346 12.0000000000000000
 -1.5900000000000001  6.4259084960805346 15.1900000000000013
  0.0000000000000000  3.6719477120460198 39.1899999999999977
  0.0000000000000000  3.6719477120460198 42.3800000000000026
  0.0000000000000000  3.6719477120460198 12.0000000000000000
  0.0000000000000000  3.6719477120460198 15.1900000000000013
  1.5900000000000001  0.9179869280115049 39.1899999999999977
  1.5900000000000001  0.9179869280115049 42.3800000000000026
  1.5900000000000001  0.9179869280115049 12.0000000000000000
  1.5900000000000001  0.9179869280115049 15.1900000000000013
 -3.1800000000000006  9.1798692801150494 15.1900000000000013
  3.1800000000000002  3.6719477120460198 39.1899999999999977
  1.5900000000000001  6.4259084960805346 15.1900000000000013
  1.5900000000000001  6.4259084960805346 12.0000000000000000
  1.5900000000000001 11.9338300641495643 15.1900000000000013
  3.1799999999999997  9.1798692801150494 39.1899999999999977
  3.1799999999999997  9.1798692801150494 42.3800000000000026
  3.1799999999999997  9.1798692801150494 12.0000000000000000
  3.1799999999999997  9.1798692801150494 15.1900000000000013
  4.7700000000000005  6.4259084960805346 39.1899999999999977
  4.7700000000000005  6.4259084960805346 42.3800000000000026
  4.7700000000000005  6.4259084960805346 12.0000000000000000
  4.7700000000000005  6.4259084960805346 15.1900000000000013
  6.3600000000000003  3.6719477120460198 39.1899999999999977
  6.3600000000000003  3.6719477120460198 42.3800000000000026
  6.3600000000000003  3.6719477120460198 12.0000000000000000
  6.3600000000000003  3.6719477120460198 15.1900000000000013
  7.9500000000000002  0.9179869280115049 39.1899999999999977
  7.9500000000000002 11.9338300641495643 42.3800000000000026
  7.9500000000000002  0.9179869280115049 12.0000000000000000
  7.9500000000000002  0.9179869280115049 15.1900000000000013
 -1.5900000000000001 11.9338300641495643 39.1899999999999977
 -1.5900000000000001 11.9338300641495643 42.3800000000000026
 -1.5900000000000001 11.9338300641495643 12.0000000000000000
 -1.5900000000000001 11.9338300641495643 15.1900000000000013
 -0.0000000000000002  9.1798692801150494 39.1899999999999977
 -0.0000000000000002  9.1798692801150494 42.3800000000000026
 -0.0000000000000002  9.1798692801150494 12.0000000000000000
 -0.0000000000000002  9.1798692801150494 15.1900000000000013
  1.5900000000000001  6.4259084960805346 39.1899999999999977
  1.5900000000000001  6.4259084960805346 42.3800000000000026
  1.5900000000000001 11.9338300641495643 42.3800000000000026
  7.9500000000000002 11.9338300641495643 39.1899999999999977
