 C Cr  H Mo  S                          
   1.00000000000000     
    15.9000000000000004    0.0000000000000000    0.0000000000000000
    -7.9500000000000037   13.7698039201725724    0.0000000000000000
     0.0000000000000000    0.0000000000000000   32.3799999999999955
   C    Cr   H    Mo   S 
    10     1    10    50   100
Selective dynamics
Direct
  0.5861930877611510  0.4355949709589308  0.4691621112742733   T   T   T
  0.5067197740634238  0.3962516555383381  0.4971536316452344   T   T   T
  0.6008138353772109  0.5265039586802922  0.4543546149822779   T   T   T
  0.5296228626469067  0.5444277205604947  0.4737453454046142   T   T   T
  0.4708148444143716  0.4626691392620775  0.5002660227592843   T   T   T
  0.3376931823121678  0.2899159064933541  0.4105141069806372   T   T   T
  0.3571122745589962  0.4441926878819113  0.4033624392595984   T   T   T
  0.3060933172449986  0.3543475335358003  0.4262245313789555   T   T   T
  0.4188048412642018  0.4337626751583630  0.3739731318249710   T   T   T
  0.4063464026529219  0.3392340289144324  0.3783840451601079   T   T   T
  0.4549025635921994  0.4195520205894395  0.4377724303119735   T   T   T
  0.4112882186081508  0.4538823503253968  0.5198209540567700   T   T   T
  0.2518562845048662  0.3374250263941521  0.4501172446094857   T   T   T
  0.3139041525929965  0.2166547535812015  0.4213668193033216   T   T   T
  0.3490537091692136  0.5077468430264240  0.4071978136206248   T   T   T
  0.4686070211555246  0.4893133332214739  0.3526651357318898   T   T   T
  0.4764842442855795  0.3263636240788754  0.5126721130986688   T   T   T
  0.6259349274740892  0.3999518975589432  0.4591039297628178   T   T   T
  0.6558744048520204  0.5736232272414857  0.4322683376133232   T   T   T
  0.5232925404075736  0.6090091704099792  0.4699870488287691   T   T   T
  0.4462701350238236  0.3112601092692127  0.3613980069312792   T   T   T
  0.6005999955937371  0.6002436648704466  0.6546949739437936   T   T   T
  0.2000000000000028  0.7999999999999972  0.2191167387276067   F   F   F
  0.2006014308180218  0.6002606466114797  0.6547259818379262   T   T   T
  0.6000000000000014  0.7999999999999972  0.2191167387276067   F   F   F
  0.2000000000000028  0.6000000000000014  0.2191167387276067   F   F   F
  0.6005805090044491  0.8002459941994258  0.6547272682580018   T   T   T
  0.2000000000000028  0.3999999999999986  0.2191167387276067   F   F   F
  0.7999999999999972  0.0000000000000000  0.2191167387276067   F   F   F
  0.2006584176621498  0.2003253867510119  0.6546141401995226   T   T   T
  0.8005744127892506  0.0002435853990685  0.6547758605865412   T   T   T
  0.2000000000000028  0.2000000000000028  0.2191167387276067   F   F   F
  0.2005791101231391  0.8002745583200868  0.6547703307953879   T   T   T
  0.2006298497447629  0.4002606467834376  0.6546411658196042   T   T   T
  0.6000000000000014  0.6000000000000014  0.2191167387276067   F   F   F
  0.3999999999999986  0.6000000000000014  0.2191167387276067   F   F   F
  0.4006088936721484  0.0002814328681421  0.6547173966598027   T   T   T
  0.6006123012972110  0.4003147277789756  0.6546787252513531   T   T   T
  0.3999999999999986  0.2000000000000028  0.2191167387276067   F   F   F
  0.6000000000000014  0.3999999999999986  0.2191167387276067   F   F   F
  0.4006369283038634  0.2003140665462741  0.6546068119976369   T   T   T
  0.3999999999999986  0.3999999999999986  0.2191167387276067   F   F   F
  0.6005800112395614  0.2002766198348169  0.6546997225078275   T   T   T
  0.4007849207198184  0.4003706499925347  0.6545630509848162   T   T   T
  0.6000000000000014  0.2000000000000028  0.2191167387276067   F   F   F
  0.4005950675235412  0.8002751770585712  0.6547355897238275   T   T   T
  0.4006562145468509  0.6002969780746422  0.6546293039754971   T   T   T
  0.6005719977204557  0.0002583793986383  0.6547502002424742   T   T   T
  0.3999999999999986  0.7999999999999972  0.2191167387276067   F   F   F
  0.6000000000000014  0.0000000000000000  0.2191167387276067   F   F   F
  0.3999999999999986  0.0000000000000000  0.2191167387276067   F   F   F
  0.7999999999999972  0.2000000000000028  0.2191167387276067   F   F   F
  0.2006010291353099  0.0002865045570372  0.6547131856029418   T   T   T
  0.2000000000000028  0.0000000000000000  0.2191167387276067   F   F   F
  0.0000000000000000  0.0000000000000000  0.2191167387276067   F   F   F
  0.8005738424789337  0.8002467025962331  0.6547691543163792   T   T   T
  0.0006171447355251  0.0002805130078843  0.6547267800629483   T   T   T
  0.7999999999999972  0.7999999999999972  0.2191167387276067   F   F   F
  0.0000000000000000  0.2000000000000028  0.2191167387276067   F   F   F
  0.0005941856259672  0.2002629058090539  0.6547224948100003   T   T   T
  0.8005654916437107  0.6002683077676028  0.6547469828632658   T   T   T
  0.0000000000000000  0.3999999999999986  0.2191167387276067   F   F   F
  0.0005949719420276  0.4002700655448338  0.6547441836093292   T   T   T
  0.0000000000000000  0.6000000000000014  0.2191167387276067   F   F   F
  0.8005756275723660  0.4002750948901509  0.6547467613554124   T   T   T
  0.0005860110281726  0.6002526293287539  0.6547832561621343   T   T   T
  0.7999999999999972  0.6000000000000014  0.2191167387276067   F   F   F
  0.7999999999999972  0.3999999999999986  0.2191167387276067   F   F   F
  0.0005854569160837  0.8002669626235780  0.6547921321287153   T   T   T
  0.0000000000000000  0.7999999999999972  0.2191167387276067   F   F   F
  0.8005905376243171  0.2002521343139137  0.6547682537214570   T   T   T
  0.9333333333333300  0.0666666666666700  0.1698579369981488   F   F   F
  0.7339770375584920  0.2669482244196797  0.6064875514601694   T   T   T
  0.7338481198903731  0.2669156127551247  0.7029916524473059   T   T   T
  0.9338696248253542  0.6668975179509348  0.7030350310702624   T   T   T
  0.9339348825945034  0.6669451724911126  0.6065290285315221   T   T   T
  0.7333333333333343  0.2666666666666657  0.1698579369981488   F   F   F
  0.7333333333333343  0.2666666666666657  0.2683755404570718   F   F   F
  0.9333333333333371  0.4666666666666686  0.2683755404570718   F   F   F
  0.7339263527566386  0.0669169819598161  0.6065200394206528   T   T   T
  0.7338942595124274  0.0669125754602458  0.7030276253359417   T   T   T
  0.9339769844409744  0.0669604030160266  0.7029995566382148   T   T   T
  0.9333333333333371  0.8666666666666671  0.1698579369981488   F   F   F
  0.7333333333333343  0.0666666666666700  0.1698579369981488   F   F   F
  0.9338566626461258  0.0668797341145459  0.6064929825094756   T   T   T
  0.7333333333333343  0.0666666666666700  0.2683755404570718   F   F   F
  0.9333333333333300  0.2666666666666657  0.1698579369981488   F   F   F
  0.9339698630553070  0.2669346338092545  0.7030048282304445   T   T   T
  0.9333333333333371  0.8666666666666671  0.2683755404570718   F   F   F
  0.7333333333333343  0.4666666666666686  0.2683755404570718   F   F   F
  0.7333333333333343  0.4666666666666686  0.1698579369981488   F   F   F
  0.7333333333333343  0.8666666666666671  0.1698579369981488   F   F   F
  0.7338584875769235  0.8668776342913893  0.7030185133629866   T   T   T
  0.7333333333333343  0.8666666666666671  0.2683755404570718   F   F   F
  0.9333333333333371  0.4666666666666686  0.1698579369981488   F   F   F
  0.7339537435259482  0.8669312504715785  0.6065048226519131   T   T   T
  0.7339708045573170  0.6669597815611376  0.6064595611739456   T   T   T
  0.7338370834252611  0.6668708636426858  0.7029999224435343   T   T   T
  0.9338985544639945  0.4668883164864640  0.7030210597799257   T   T   T
  0.7333333333333343  0.6666666666666643  0.1698579369981488   F   F   F
  0.9339173065028696  0.4669645044405190  0.6065075988803720   T   T   T
  0.7333333333333343  0.6666666666666643  0.2683755404570718   F   F   F
  0.9338736814411774  0.2669260895524708  0.6064972299165408   T   T   T
  0.9333333333333300  0.2666666666666657  0.2683755404570718   F   F   F
  0.7339925130229003  0.4669962867102691  0.6064404187090671   T   T   T
  0.7338404478945222  0.4669018190625598  0.7029842915280842   T   T   T
  0.9333333333333371  0.6666666666666643  0.2683755404570718   F   F   F
  0.9333333333333300  0.0666666666666700  0.2683755404570718   F   F   F
  0.9333333333333371  0.6666666666666643  0.1698579369981488   F   F   F
  0.5339314320903595  0.8669440436933227  0.6064863111970451   T   T   T
  0.5339179397894646  0.0669867873916180  0.7029851278793268   T   T   T
  0.5333333333333314  0.8666666666666671  0.1698579369981488   F   F   F
  0.3333333333333357  0.2666666666666657  0.1698579369981488   F   F   F
  0.3333333333333357  0.2666666666666657  0.2683755404570718   F   F   F
  0.3338934926601460  0.0668338590643052  0.6064272170904789   T   T   T
  0.3339963982469655  0.0670790266323355  0.7029295552983610   T   T   T
  0.3333333333333357  0.0666666666666700  0.1698579369981488   F   F   F
  0.3333333333333357  0.0666666666666700  0.2683755404570718   F   F   F
  0.1338493077628157  0.8668641725488043  0.6065141626374188   T   T   T
  0.1339704920050243  0.8670207513388707  0.7030222594732130   T   T   T
  0.1333333333333329  0.8666666666666671  0.1698579369981488   F   F   F
  0.1333333333333329  0.8666666666666671  0.2683755404570718   F   F   F
  0.1338792572431462  0.6669444164441904  0.6065149096741400   T   T   T
  0.1339645960747872  0.6669135451830945  0.7030216820544831   T   T   T
  0.3340519920170431  0.2670709404094823  0.7028316877277960   T   T   T
  0.1333333333333329  0.6666666666666643  0.1698579369981488   F   F   F
  0.1338683998020417  0.4669596334771237  0.6064541016861392   T   T   T
  0.1340166219324812  0.4668819894990580  0.7029576420426181   T   T   T
  0.1333333333333329  0.4666666666666686  0.1698579369981488   F   F   F
  0.1333333333333329  0.4666666666666686  0.2683755404570718   F   F   F
  0.1338351016379676  0.2668946734118723  0.6063977679376237   T   T   T
  0.1340588884374553  0.2669725934847426  0.7029071983191840   T   T   T
  0.1333333333333329  0.2666666666666657  0.1698579369981488   F   F   F
  0.1333333333333329  0.2666666666666657  0.2683755404570718   F   F   F
  0.1338816699197504  0.0668575076085951  0.6064313493791269   T   T   T
  0.1340444777696479  0.0671011330343764  0.7029353987499518   T   T   T
  0.1333333333333329  0.0666666666666700  0.1698579369981488   F   F   F
  0.1333333333333329  0.0666666666666700  0.2683755404570718   F   F   F
  0.1333333333333329  0.6666666666666643  0.2683755404570718   F   F   F
  0.3340408569505492  0.2670098660825156  0.6062829564865396   T   T   T
  0.3333333333333357  0.4666666666666686  0.2683755404570718   F   F   F
  0.3333333333333357  0.4666666666666686  0.1698579369981488   F   F   F
  0.5333333333333314  0.8666666666666671  0.2683755404570718   F   F   F
  0.5340422484293841  0.6669870303583219  0.6063863563948348   T   T   T
  0.5338540926427267  0.6668429696242297  0.7029431559308297   T   T   T
  0.5333333333333314  0.6666666666666643  0.1698579369981488   F   F   F
  0.5333333333333314  0.6666666666666643  0.2683755404570718   F   F   F
  0.5342491409389009  0.4671181317584344  0.6064001377622373   T   T   T
  0.5338755880694530  0.4668916564400912  0.7029426556200773   T   T   T
  0.5333333333333314  0.4666666666666686  0.1698579369981488   F   F   F
  0.5333333333333314  0.4666666666666686  0.2683755404570718   F   F   F
  0.5340282196451612  0.2670202629347735  0.6063640062402609   T   T   T
  0.5338511086105338  0.2669527040480751  0.7029118146722708   T   T   T
  0.5333333333333314  0.2666666666666657  0.1698579369981488   F   F   F
  0.5333333333333314  0.2666666666666657  0.2683755404570718   F   F   F
  0.5339446261588925  0.0669082097441606  0.6064701209387151   T   T   T
  0.9339275878000264  0.8669857533234155  0.7030239570050634   T   T   T
  0.5333333333333314  0.0666666666666700  0.1698579369981488   F   F   F
  0.5333333333333314  0.0666666666666700  0.2683755404570718   F   F   F
  0.3338730806005237  0.8669062242526454  0.6064941266394785   T   T   T
  0.3339642329426595  0.8669723581506469  0.7030022338557946   T   T   T
  0.3333333333333357  0.8666666666666671  0.1698579369981488   F   F   F
  0.3333333333333357  0.8666666666666671  0.2683755404570718   F   F   F
  0.3339033606748187  0.6670061014764184  0.6064426276115812   T   T   T
  0.3339820615629249  0.6668677862139512  0.7029467972647389   T   T   T
  0.3333333333333357  0.6666666666666643  0.1698579369981488   F   F   F
  0.3333333333333357  0.6666666666666643  0.2683755404570718   F   F   F
  0.3339894105129417  0.4670021121748459  0.6063276345727695   T   T   T
  0.3340536857391223  0.4669242060457055  0.7028486949316749   T   T   T
  0.5339023809440862  0.8668900839986570  0.7029989361025821   T   T   T
  0.9338979504995569  0.8668698081842402  0.6065146673015136   T   T   T
 
  0.00000000E+00  0.00000000E+00  0.00000000E+00
  0.00000000E+00  0.00000000E+00  0.00000000E+00
  0.00000000E+00  0.00000000E+00  0.00000000E+00
  0.00000000E+00  0.00000000E+00  0.00000000E+00
  0.00000000E+00  0.00000000E+00  0.00000000E+00
  0.00000000E+00  0.00000000E+00  0.00000000E+00
  0.00000000E+00  0.00000000E+00  0.00000000E+00
  0.00000000E+00  0.00000000E+00  0.00000000E+00
  0.00000000E+00  0.00000000E+00  0.00000000E+00
  0.00000000E+00  0.00000000E+00  0.00000000E+00
  0.00000000E+00  0.00000000E+00  0.00000000E+00
  0.00000000E+00  0.00000000E+00  0.00000000E+00
  0.00000000E+00  0.00000000E+00  0.00000000E+00
  0.00000000E+00  0.00000000E+00  0.00000000E+00
  0.00000000E+00  0.00000000E+00  0.00000000E+00
  0.00000000E+00  0.00000000E+00  0.00000000E+00
  0.00000000E+00  0.00000000E+00  0.00000000E+00
  0.00000000E+00  0.00000000E+00  0.00000000E+00
  0.00000000E+00  0.00000000E+00  0.00000000E+00
  0.00000000E+00  0.00000000E+00  0.00000000E+00
  0.00000000E+00  0.00000000E+00  0.00000000E+00
  0.00000000E+00  0.00000000E+00  0.00000000E+00
  0.00000000E+00  0.00000000E+00  0.00000000E+00
  0.00000000E+00  0.00000000E+00  0.00000000E+00
  0.00000000E+00  0.00000000E+00  0.00000000E+00
  0.00000000E+00  0.00000000E+00  0.00000000E+00
  0.00000000E+00  0.00000000E+00  0.00000000E+00
  0.00000000E+00  0.00000000E+00  0.00000000E+00
  0.00000000E+00  0.00000000E+00  0.00000000E+00
  0.00000000E+00  0.00000000E+00  0.00000000E+00
  0.00000000E+00  0.00000000E+00  0.00000000E+00
  0.00000000E+00  0.00000000E+00  0.00000000E+00
  0.00000000E+00  0.00000000E+00  0.00000000E+00
  0.00000000E+00  0.00000000E+00  0.00000000E+00
  0.00000000E+00  0.00000000E+00  0.00000000E+00
  0.00000000E+00  0.00000000E+00  0.00000000E+00
  0.00000000E+00  0.00000000E+00  0.00000000E+00
  0.00000000E+00  0.00000000E+00  0.00000000E+00
  0.00000000E+00  0.00000000E+00  0.00000000E+00
  0.00000000E+00  0.00000000E+00  0.00000000E+00
  0.00000000E+00  0.00000000E+00  0.00000000E+00
  0.00000000E+00  0.00000000E+00  0.00000000E+00
  0.00000000E+00  0.00000000E+00  0.00000000E+00
  0.00000000E+00  0.00000000E+00  0.00000000E+00
  0.00000000E+00  0.00000000E+00  0.00000000E+00
  0.00000000E+00  0.00000000E+00  0.00000000E+00
  0.00000000E+00  0.00000000E+00  0.00000000E+00
  0.00000000E+00  0.00000000E+00  0.00000000E+00
  0.00000000E+00  0.00000000E+00  0.00000000E+00
  0.00000000E+00  0.00000000E+00  0.00000000E+00
  0.00000000E+00  0.00000000E+00  0.00000000E+00
  0.00000000E+00  0.00000000E+00  0.00000000E+00
  0.00000000E+00  0.00000000E+00  0.00000000E+00
  0.00000000E+00  0.00000000E+00  0.00000000E+00
  0.00000000E+00  0.00000000E+00  0.00000000E+00
  0.00000000E+00  0.00000000E+00  0.00000000E+00
  0.00000000E+00  0.00000000E+00  0.00000000E+00
  0.00000000E+00  0.00000000E+00  0.00000000E+00
  0.00000000E+00  0.00000000E+00  0.00000000E+00
  0.00000000E+00  0.00000000E+00  0.00000000E+00
  0.00000000E+00  0.00000000E+00  0.00000000E+00
  0.00000000E+00  0.00000000E+00  0.00000000E+00
  0.00000000E+00  0.00000000E+00  0.00000000E+00
  0.00000000E+00  0.00000000E+00  0.00000000E+00
  0.00000000E+00  0.00000000E+00  0.00000000E+00
  0.00000000E+00  0.00000000E+00  0.00000000E+00
  0.00000000E+00  0.00000000E+00  0.00000000E+00
  0.00000000E+00  0.00000000E+00  0.00000000E+00
  0.00000000E+00  0.00000000E+00  0.00000000E+00
  0.00000000E+00  0.00000000E+00  0.00000000E+00
  0.00000000E+00  0.00000000E+00  0.00000000E+00
  0.00000000E+00  0.00000000E+00  0.00000000E+00
  0.00000000E+00  0.00000000E+00  0.00000000E+00
  0.00000000E+00  0.00000000E+00  0.00000000E+00
  0.00000000E+00  0.00000000E+00  0.00000000E+00
  0.00000000E+00  0.00000000E+00  0.00000000E+00
  0.00000000E+00  0.00000000E+00  0.00000000E+00
  0.00000000E+00  0.00000000E+00  0.00000000E+00
  0.00000000E+00  0.00000000E+00  0.00000000E+00
  0.00000000E+00  0.00000000E+00  0.00000000E+00
  0.00000000E+00  0.00000000E+00  0.00000000E+00
  0.00000000E+00  0.00000000E+00  0.00000000E+00
  0.00000000E+00  0.00000000E+00  0.00000000E+00
  0.00000000E+00  0.00000000E+00  0.00000000E+00
  0.00000000E+00  0.00000000E+00  0.00000000E+00
  0.00000000E+00  0.00000000E+00  0.00000000E+00
  0.00000000E+00  0.00000000E+00  0.00000000E+00
  0.00000000E+00  0.00000000E+00  0.00000000E+00
  0.00000000E+00  0.00000000E+00  0.00000000E+00
  0.00000000E+00  0.00000000E+00  0.00000000E+00
  0.00000000E+00  0.00000000E+00  0.00000000E+00
  0.00000000E+00  0.00000000E+00  0.00000000E+00
  0.00000000E+00  0.00000000E+00  0.00000000E+00
  0.00000000E+00  0.00000000E+00  0.00000000E+00
  0.00000000E+00  0.00000000E+00  0.00000000E+00
  0.00000000E+00  0.00000000E+00  0.00000000E+00
  0.00000000E+00  0.00000000E+00  0.00000000E+00
  0.00000000E+00  0.00000000E+00  0.00000000E+00
  0.00000000E+00  0.00000000E+00  0.00000000E+00
  0.00000000E+00  0.00000000E+00  0.00000000E+00
  0.00000000E+00  0.00000000E+00  0.00000000E+00
  0.00000000E+00  0.00000000E+00  0.00000000E+00
  0.00000000E+00  0.00000000E+00  0.00000000E+00
  0.00000000E+00  0.00000000E+00  0.00000000E+00
  0.00000000E+00  0.00000000E+00  0.00000000E+00
  0.00000000E+00  0.00000000E+00  0.00000000E+00
  0.00000000E+00  0.00000000E+00  0.00000000E+00
  0.00000000E+00  0.00000000E+00  0.00000000E+00
  0.00000000E+00  0.00000000E+00  0.00000000E+00
  0.00000000E+00  0.00000000E+00  0.00000000E+00
  0.00000000E+00  0.00000000E+00  0.00000000E+00
  0.00000000E+00  0.00000000E+00  0.00000000E+00
  0.00000000E+00  0.00000000E+00  0.00000000E+00
  0.00000000E+00  0.00000000E+00  0.00000000E+00
  0.00000000E+00  0.00000000E+00  0.00000000E+00
  0.00000000E+00  0.00000000E+00  0.00000000E+00
  0.00000000E+00  0.00000000E+00  0.00000000E+00
  0.00000000E+00  0.00000000E+00  0.00000000E+00
  0.00000000E+00  0.00000000E+00  0.00000000E+00
  0.00000000E+00  0.00000000E+00  0.00000000E+00
  0.00000000E+00  0.00000000E+00  0.00000000E+00
  0.00000000E+00  0.00000000E+00  0.00000000E+00
  0.00000000E+00  0.00000000E+00  0.00000000E+00
  0.00000000E+00  0.00000000E+00  0.00000000E+00
  0.00000000E+00  0.00000000E+00  0.00000000E+00
  0.00000000E+00  0.00000000E+00  0.00000000E+00
  0.00000000E+00  0.00000000E+00  0.00000000E+00
  0.00000000E+00  0.00000000E+00  0.00000000E+00
  0.00000000E+00  0.00000000E+00  0.00000000E+00
  0.00000000E+00  0.00000000E+00  0.00000000E+00
  0.00000000E+00  0.00000000E+00  0.00000000E+00
  0.00000000E+00  0.00000000E+00  0.00000000E+00
  0.00000000E+00  0.00000000E+00  0.00000000E+00
  0.00000000E+00  0.00000000E+00  0.00000000E+00
  0.00000000E+00  0.00000000E+00  0.00000000E+00
  0.00000000E+00  0.00000000E+00  0.00000000E+00
  0.00000000E+00  0.00000000E+00  0.00000000E+00
  0.00000000E+00  0.00000000E+00  0.00000000E+00
  0.00000000E+00  0.00000000E+00  0.00000000E+00
  0.00000000E+00  0.00000000E+00  0.00000000E+00
  0.00000000E+00  0.00000000E+00  0.00000000E+00
  0.00000000E+00  0.00000000E+00  0.00000000E+00
  0.00000000E+00  0.00000000E+00  0.00000000E+00
  0.00000000E+00  0.00000000E+00  0.00000000E+00
  0.00000000E+00  0.00000000E+00  0.00000000E+00
  0.00000000E+00  0.00000000E+00  0.00000000E+00
  0.00000000E+00  0.00000000E+00  0.00000000E+00
  0.00000000E+00  0.00000000E+00  0.00000000E+00
  0.00000000E+00  0.00000000E+00  0.00000000E+00
  0.00000000E+00  0.00000000E+00  0.00000000E+00
  0.00000000E+00  0.00000000E+00  0.00000000E+00
  0.00000000E+00  0.00000000E+00  0.00000000E+00
  0.00000000E+00  0.00000000E+00  0.00000000E+00
  0.00000000E+00  0.00000000E+00  0.00000000E+00
  0.00000000E+00  0.00000000E+00  0.00000000E+00
  0.00000000E+00  0.00000000E+00  0.00000000E+00
  0.00000000E+00  0.00000000E+00  0.00000000E+00
  0.00000000E+00  0.00000000E+00  0.00000000E+00
  0.00000000E+00  0.00000000E+00  0.00000000E+00
  0.00000000E+00  0.00000000E+00  0.00000000E+00
  0.00000000E+00  0.00000000E+00  0.00000000E+00
  0.00000000E+00  0.00000000E+00  0.00000000E+00
  0.00000000E+00  0.00000000E+00  0.00000000E+00
  0.00000000E+00  0.00000000E+00  0.00000000E+00
  0.00000000E+00  0.00000000E+00  0.00000000E+00
  0.00000000E+00  0.00000000E+00  0.00000000E+00
  0.00000000E+00  0.00000000E+00  0.00000000E+00
  0.00000000E+00  0.00000000E+00  0.00000000E+00
  0.00000000E+00  0.00000000E+00  0.00000000E+00
  0.00000000E+00  0.00000000E+00  0.00000000E+00
  0.00000000E+00  0.00000000E+00  0.00000000E+00
