MoS2
1.000 
   3.190316000000000   0.000000000000000   0.000000000000000
  -1.595157998796072   2.762893998427693   0.000000000000000
   0.000000000000002   0.000000000000004  39.758009000000001
Mo  S   
4   8   
Cartesian
     1.5951595955593098619      0.9209637451778992512     11.1592382081110006453
     1.5951595955593107501      0.9209637451779008055     26.0382754962710016855
    -0.0000015943553806018      1.8419302532497949798      3.7197593220400002600
    -0.0000015943553796907      1.8419302532497965341     18.5987568521910020536
    -0.0000015943553800504      1.8419302532497958680     12.7241532003599999712
    -0.0000015943553791393      1.8419302532497974223     27.6031507305110004324
     1.5951595955593094178      0.9209637451778985850      5.2846345562800003393
     1.5951595955593105280      0.9209637451779001394     20.1636320864310008005
    -0.0000015943553802420      1.8419302532497956459      9.5943629738710001220
    -0.0000015943553793310      1.8419302532497972003     24.4733605040220041360
     1.5951595955593094178      0.9209637451778982520      2.1548443297910000460
     1.5951595955593103060      0.9209637451778998063     17.0338816179509997539
