 C  H Mo  S Mo  S Mo  S Mo  S Mo  S Mo  S Mo  S Mo  S Mo  S Mo  S Mo  S Mo  S 
 1.0000000000000000
     9.5709480000000013    0.0000000000000000    0.0000000000000000
    -6.3806319951842880   11.0515759937107720    0.0000000000000000
     0.0000000000000000    0.0000000000000000   39.7580090000000013
   1   4   4   8   4   8   4   8   4   8   4   8   4   8   4   8   4   8   4   8   4   8   4   8   4   8
Cartesian
  2.7101165635673752  7.2962791923907506 37.8390678311191380
  2.6096240229130174  8.2686791542015126 38.3397541661763697
  3.1976984660851677  6.5836916534211403 38.5175778204452399
  1.7149128874585040  6.9204036916602849 37.5665621201393591
  3.3184586654595298  7.4130311957138133 36.9320721826650171
  1.5951595955593099  0.9209637451778993 11.1592382081110006
  1.5951595955593108  0.9209637451779008 26.0382754962710017
 -0.0000015943553806  1.8419302532497950  3.7197593220400003
 -0.0000015943553797  1.8419302532497965 18.5987568521910021
 -0.0000015943553801  1.8419302532497959 12.7241532003600000
 -0.0000015943553791  1.8419302532497974 27.6031507305110004
  1.5951595955593094  0.9209637451778986  5.2846345562800003
  1.5951595955593105  0.9209637451779001 20.1636320864310008
 -0.0000015943553802  1.8419302532497956  9.5943629738710001
 -0.0000015943553793  1.8419302532497972 24.4733605040220041
  1.5951595955593094  0.9209637451778983  2.1548443297910000
  1.5951595955593103  0.9209637451778998 17.0338816179509998
  0.0000015967632379  3.6838577436055924 11.1592382081110006
  0.0000015967632387  3.6838577436055937 26.0382754962710017
 -1.5951595931514526  4.6048242516774884  3.7197593220400003
 -1.5951595931514517  4.6048242516774893 18.5987568521910021
 -1.5951595931514519  4.6048242516774884 12.7241532003600000
 -1.5951595931514511  4.6048242516774902 27.6031507305110004
  0.0000015967632374  3.6838577436055915  5.2846345562800003
  0.0000015967632385  3.6838577436055933 20.1636320864310008
 -1.5951595931514522  4.6048242516774884  9.5943629738710001
 -1.5951595931514513  4.6048242516774902 24.4733605040220041
  0.0000015967632374  3.6838577436055910  2.1548443297910000
  0.0000015967632383  3.6838577436055928 17.0338816179509998
 -1.5951564020328342  6.4467517420332854 11.1592382081110006
 -1.5951564020328333  6.4467517420332872 26.0382754962710017
 -3.1903175919475246  7.3677182501051810  3.7197593220400003
 -3.1903175919475237  7.3677182501051828 18.5987568521910021
 -3.1903175919475242  7.3677182501051819 12.7241532003600000
 -3.1903175919475233  7.3677182501051837 27.6031507305110004
 -1.5951564020328346  6.4467517420332845  5.2846345562800003
 -1.5951564020328335  6.4467517420332863 20.1636320864310008
 -3.1903175919475242  7.3677182501051819  9.5943629738710001
 -3.1903175919475233  7.3677182501051828 24.4733605040220041
 -1.5951564020328346  6.4467517420332845  2.1548443297910000
 -1.5951564020328337  6.4467517420332854 17.0338816179509998
 -3.1903144008289059  9.2096457404609779 11.1592382081110006
 -3.1903144008289051  9.2096457404609797 26.0382754962710017
 -4.7854755907435962 10.1306122485328736  3.7197593220400003
 -4.7854755907435953 10.1306122485328753 18.5987568521910021
 -4.7854755907435962 10.1306122485328753 12.7241532003600000
 -4.7854755907435953 10.1306122485328771 27.6031507305110004
 -3.1903144008289068  9.2096457404609779  5.2846345562800003
 -3.1903144008289055  9.2096457404609797 20.1636320864310008
 -4.7854755907435962 10.1306122485328753  9.5943629738710001
 -4.7854755907435953 10.1306122485328771 24.4733605040220041
 -3.1903144008289068  9.2096457404609779  2.1548443297910000
 -3.1903144008289059  9.2096457404609797 17.0338816179509998
  4.7854755955593102  0.9209637451778993 11.1592382081110006
  4.7854755955593111  0.9209637451779008 26.0382754962710017
  3.1903144056446195  1.8419302532497950  3.7197593220400003
  3.1903144056446204  1.8419302532497965 18.5987568521910021
  3.1903144056446200  1.8419302532497959 12.7241532003600000
  3.1903144056446209  1.8419302532497974 27.6031507305110004
  4.7854755955593093  0.9209637451778986  5.2846345562800003
  4.7854755955593102  0.9209637451779001 20.1636320864310008
  3.1903144056446200  1.8419302532497956  9.5943629738710001
  3.1903144056446209  1.8419302532497972 24.4733605040220041
  4.7854755955593093  0.9209637451778983  2.1548443297910000
  4.7854755955593102  0.9209637451778998 17.0338816179509998
  3.1903175967632382  3.6838577436055924 11.1592382081110006
  3.1903175967632391  3.6838577436055937 26.0382754962710017
  1.5951564068485475  4.6048242516774884  3.7197593220400003
  1.5951564068485484  4.6048242516774893 18.5987568521910021
  1.5951564068485482  4.6048242516774884 12.7241532003600000
  1.5951564068485491  4.6048242516774902 27.6031507305110004
  3.1903175967632373  3.6838577436055915  5.2846345562800003
  3.1903175967632387  3.6838577436055933 20.1636320864310008
  1.5951564068485480  4.6048242516774884  9.5943629738710001
  1.5951564068485489  4.6048242516774902 24.4733605040220041
  3.1903175967632373  3.6838577436055910  2.1548443297910000
  3.1903175967632382  3.6838577436055928 17.0338816179509998
  1.5951595979671660  6.4467517420332854 11.1592382081110006
  1.5951595979671669  6.4467517420332872 26.0382754962710017
 -0.0000015919475245  7.3677182501051810  3.7197593220400003
 -0.0000015919475236  7.3677182501051828 18.5987568521910021
 -0.0000015919475239  7.3677182501051819 12.7241532003600000
 -0.0000015919475230  7.3677182501051837 27.6031507305110004
  1.5951595979671656  6.4467517420332845  5.2846345562800003
  1.5951595979671667  6.4467517420332863 20.1636320864310008
 -0.0000015919475241  7.3677182501051819  9.5943629738710001
 -0.0000015919475232  7.3677182501051828 24.4733605040220041
  1.5951595979671656  6.4467517420332845  2.1548443297910000
  1.5951595979671664  6.4467517420332854 17.0338816179509998
  0.0000015991710940  9.2096457404609779 11.1592382081110006
  0.0000015991710949  9.2096457404609797 26.0382754962710017
 -1.5951595907435965 10.1306122485328736  3.7197593220400003
 -1.5951595907435956 10.1306122485328753 18.5987568521910021
 -1.5951595907435958 10.1306122485328753 12.7241532003600000
 -1.5951595907435949 10.1306122485328771 27.6031507305110004
  0.0000015991710935  9.2096457404609779  5.2846345562800003
  0.0000015991710947  9.2096457404609797 20.1636320864310008
 -1.5951595907435960 10.1306122485328753  9.5943629738710001
 -1.5951595907435951 10.1306122485328771 24.4733605040220041
  0.0000015991710935  9.2096457404609779  2.1548443297910000
  0.0000015991710944  9.2096457404609797 17.0338816179509998
  7.9757915955593104  0.9209637451778993 11.1592382081110006
  7.9757915955593113  0.9209637451779008 26.0382754962710017
  6.3806304056446201  1.8419302532497950  3.7197593220400003
  6.3806304056446210  1.8419302532497965 18.5987568521910021
  6.3806304056446201  1.8419302532497959 12.7241532003600000
  6.3806304056446210  1.8419302532497974 27.6031507305110004
  7.9757915955593095  0.9209637451778986  5.2846345562800003
  7.9757915955593113  0.9209637451779001 20.1636320864310008
  6.3806304056446201  1.8419302532497956  9.5943629738710001
  6.3806304056446210  1.8419302532497972 24.4733605040220041
  7.9757915955593095  0.9209637451778983  2.1548443297910000
  7.9757915955593104  0.9209637451778998 17.0338816179509998
  6.3806335967632384  3.6838577436055924 11.1592382081110006
  6.3806335967632393  3.6838577436055937 26.0382754962710017
  4.7854724068485481  4.6048242516774884  3.7197593220400003
  4.7854724068485490  4.6048242516774893 18.5987568521910021
  4.7854724068485481  4.6048242516774884 12.7241532003600000
  4.7854724068485490  4.6048242516774902 27.6031507305110004
  6.3806335967632375  3.6838577436055915  5.2846345562800003
  6.3806335967632393  3.6838577436055933 20.1636320864310008
  4.7854724068485481  4.6048242516774884  9.5943629738710001
  4.7854724068485490  4.6048242516774902 24.4733605040220041
  6.3806335967632375  3.6838577436055910  2.1548443297910000
  6.3806335967632384  3.6838577436055928 17.0338816179509998
  4.7854755979671664  6.4467517420332854 11.1592382081110006
  4.7854755979671673  6.4467517420332872 26.0382754962710017
  3.1903144080524757  7.3677182501051810  3.7197593220400003
  3.1903144080524766  7.3677182501051828 18.5987568521910021
  3.1903144080524761  7.3677182501051819 12.7241532003600000
  3.1903144080524770  7.3677182501051837 27.6031507305110004
  4.7854755979671655  6.4467517420332845  5.2846345562800003
  4.7854755979671673  6.4467517420332863 20.1636320864310008
  3.1903144080524761  7.3677182501051819  9.5943629738710001
  3.1903144080524770  7.3677182501051828 24.4733605040220041
  4.7854755979671655  6.4467517420332845  2.1548443297910000
  4.7854755979671664  6.4467517420332854 17.0338816179509998
  3.1903175991710944  9.2096457404609779 11.1592382081110006
  3.1903175991710953  9.2096457404609797 26.0382754962710017
  1.5951564092564037 10.1306122485328736  3.7197593220400003
  1.5951564092564046 10.1306122485328753 18.5987568521910021
  1.5951564092564043 10.1306122485328753 12.7241532003600000
  1.5951564092564052 10.1306122485328771 27.6031507305110004
  3.1903175991710935  9.2096457404609779  5.2846345562800003
  3.1903175991710948  9.2096457404609797 20.1636320864310008
  1.5951564092564041 10.1306122485328753  9.5943629738710001
  1.5951564092564050 10.1306122485328771 24.4733605040220041
  3.1903175991710935  9.2096457404609779  2.1548443297910000
  3.1903175991710944  9.2096457404609797 17.0338816179509998
