 C Co  H Mo  S                          
   1.00000000000000     
     9.5709464550000014    0.0000000000000000    0.0000000000000000
    -6.3806280268000020   11.0515787236000005    0.0000000000000000
     0.0000000000000000    0.0000000000000000   34.8802625070458063
   C    Co   H    Mo   S 
    10     1    10    24    48
Direct
  0.9401876078410911  0.4140227582045162  0.5404727507748813
  0.8004781352201596  0.3815130498507818  0.5636759376204902
  0.0735280123323936  0.4442682263317026  0.5656259965361236
  0.0168936060682184  0.4322290690993160  0.6042420707995844
  0.8479564809156652  0.3930052020980402  0.6030446875759086
  0.8970161444178830  0.6702823404965611  0.5597775339803031
  0.0874783102463100  0.7106480058586688  0.6069996814811859
  0.9215701567228639  0.6743768055182144  0.6003333565399083
  0.1660053366775195  0.7305964505444851  0.5706166085553095
  0.0480308772807391  0.7044412679575509  0.5413440883911355
 -0.0207115759044379  0.5554162878279436  0.5751517943087779
  0.7714954313314430  0.3786039057661270  0.6278523272870752
  0.8303132831939841  0.6501410919302404  0.6224476716273598
  0.2915065637802620  0.7564011680638987  0.5661069430870247
  0.1423714813912828  0.7182286354689184  0.6348833002815469
  0.7830208840866141  0.6425253705321095  0.5453621190458146
  0.6807834831642415  0.3563484497589238  0.5532019095420134
  0.9448749725293943  0.4176166934062944  0.5093190348302401
  0.1972322958943006  0.4754474124975295  0.5568913095060922
  0.0894989656876898  0.4526992524798517  0.6301001454806573
  0.0683445074077132  0.7073174851946731  0.5105833738648705
  0.5552107986665741  0.0825636141614512  0.2523189481990425
  0.5552050291972764  0.3325577971652730  0.2523205625495997
  0.4659670526210676  0.4297109130281586  0.7439555629952096
  0.5552095581855511  0.5825612647520824  0.2523199732523540
  0.4661674218591093  0.6797503504825971  0.7439523891438801
  0.5552127154261866  0.8325656195617802  0.2523183969622533
  0.4664019075147116  0.9297932676172136  0.7442365610126758
  0.8885599805601873  0.3325612358371527  0.2523148125837860
  0.7991144270917406  0.1791859735532515  0.7443202407865535
  0.7990904399782959  0.4293264858233217  0.7442520457057255
  0.8885602258034037  0.5825641614777686  0.2523143851702392
  0.7993317913771645  0.6796944738169550  0.7440341462518550
  0.8885635732253011  0.8325672772179330  0.2523135708226460
  0.7993736204204133  0.9295261920823576  0.7440425943651590
  0.1324655477876933  0.9297301441382146  0.7441355739990981
  0.8885633793066153  0.0825651626696693  0.2523133159567366
  0.2218969348375753  0.8325605999303125  0.2523194995195584
  0.4658060809034680  0.1793971345028166  0.7441232668920768
  0.2218947284149328  0.5825559609443755  0.2523207119297643
  0.1326794916077794  0.4296181349618737  0.7441175882841764
  0.2218928353420755  0.3325534335581445  0.2523221407599539
  0.2218940925297467  0.0825577772580144  0.2523203153171478
  0.1325556543821802  0.1796248767584732  0.7440651838993927
  0.1327518265791131  0.6797511498407927  0.7440727479835024
  0.7768218105544394  0.1650971764459846  0.2968627093982921
  0.9112702727998664  0.0966945183416687  0.7887018214419376
  0.7768120523819781  0.1651038327950039  0.2077510348416089
  0.9109254945450846  0.0970625798675573  0.6995972529462989
  0.2443600029135211  0.0970718749345209  0.6995835628516135
  0.1101738777046007  0.1651071481278959  0.2077529475666726
  0.7768200974068623  0.4150974322048915  0.2968631284901570
  0.9112930349798947  0.3470078202640163  0.7887898354435859
  0.1101702094311439  0.6651042860715898  0.2077535869167170
  0.5778398086212643  0.8473706454987179  0.6995442559796647
  0.9104155664261295  0.3462191955573324  0.7000011959506710
  0.2442378115458619  0.0971120500240263  0.7886563616416775
  0.1101486745761910  0.1650908274448577  0.2968678703757276
  0.7768235536921559  0.6651033051418599  0.2968625997036823
  0.9111714966633511  0.5971675270786142  0.7886259965728957
  0.7768101149791687  0.6651016042521998  0.2077519074151934
  0.9107467379671154  0.5964982665820561  0.6997392629871926
  0.7768230973706306  0.9151033769012391  0.2968618715506355
  0.9108604218915666  0.8469145655874010  0.7886241511690494
  0.7768092826378902  0.4151000976222892  0.2077525024940619
  0.4434871910698150  0.9151131388613707  0.2077534246636520
  0.4434876746973759  0.9151083725943167  0.2968686151165983
  0.2443735214412166  0.5971418468015464  0.6995115866719362
  0.2446942319051746  0.5972632297732475  0.7885445217991820
  0.1101548498925278  0.9150979118882741  0.2968670455955692
  0.2443121408813611  0.8470691800318637  0.7886815240227197
  0.1101723607938562  0.9151074713822379  0.2077524319813243
  0.2452804682015046  0.8479774750742840  0.6998659916744748
  0.1101553945986309  0.6650982935888340  0.2968670546204665
  0.7768121093183957  0.9151029324092174  0.2077504869815973
  0.4434830937495283  0.1651026151733885  0.2968695456087876
  0.5775295236060034  0.0970388042610875  0.7888082777925176
  0.4434844211318980  0.1651107345297864  0.2077540239484528
  0.5780217494218035  0.0970600991148633  0.6996784610466500
  0.4434847212332007  0.4151033195824056  0.2968700197949109
  0.5772274959550587  0.3470024849010199  0.7886201766837682
  0.4434838402456887  0.4151086573133818  0.2077552269336943
  0.5777874478771792  0.3467807207921238  0.6995806411351214
  0.2441350865585573  0.3470189466093264  0.6994943744624605
  0.1101706678364621  0.4151023476960000  0.2077544477955156
  0.4434879814085928  0.6651084703610740  0.2968686035226861
  0.5776634365115089  0.5970365211189070  0.7884973528870948
  0.4434865137762019  0.6651101054232498  0.2077545038832863
  0.5780442985214637  0.5972153871313226  0.6994251070806796
  0.2446243445787877  0.3471687968582065  0.7885737143680217
  0.1101518448198463  0.4150932195211965  0.2968681301450988
  0.5779529983599846  0.8468222435888746  0.7886273198168499
  0.9112836943776415  0.8471395779315020  0.6994875331472636
 
  0.00000000E+00  0.00000000E+00  0.00000000E+00
  0.00000000E+00  0.00000000E+00  0.00000000E+00
  0.00000000E+00  0.00000000E+00  0.00000000E+00
  0.00000000E+00  0.00000000E+00  0.00000000E+00
  0.00000000E+00  0.00000000E+00  0.00000000E+00
  0.00000000E+00  0.00000000E+00  0.00000000E+00
  0.00000000E+00  0.00000000E+00  0.00000000E+00
  0.00000000E+00  0.00000000E+00  0.00000000E+00
  0.00000000E+00  0.00000000E+00  0.00000000E+00
  0.00000000E+00  0.00000000E+00  0.00000000E+00
  0.00000000E+00  0.00000000E+00  0.00000000E+00
  0.00000000E+00  0.00000000E+00  0.00000000E+00
  0.00000000E+00  0.00000000E+00  0.00000000E+00
  0.00000000E+00  0.00000000E+00  0.00000000E+00
  0.00000000E+00  0.00000000E+00  0.00000000E+00
  0.00000000E+00  0.00000000E+00  0.00000000E+00
  0.00000000E+00  0.00000000E+00  0.00000000E+00
  0.00000000E+00  0.00000000E+00  0.00000000E+00
  0.00000000E+00  0.00000000E+00  0.00000000E+00
  0.00000000E+00  0.00000000E+00  0.00000000E+00
  0.00000000E+00  0.00000000E+00  0.00000000E+00
  0.00000000E+00  0.00000000E+00  0.00000000E+00
  0.00000000E+00  0.00000000E+00  0.00000000E+00
  0.00000000E+00  0.00000000E+00  0.00000000E+00
  0.00000000E+00  0.00000000E+00  0.00000000E+00
  0.00000000E+00  0.00000000E+00  0.00000000E+00
  0.00000000E+00  0.00000000E+00  0.00000000E+00
  0.00000000E+00  0.00000000E+00  0.00000000E+00
  0.00000000E+00  0.00000000E+00  0.00000000E+00
  0.00000000E+00  0.00000000E+00  0.00000000E+00
  0.00000000E+00  0.00000000E+00  0.00000000E+00
  0.00000000E+00  0.00000000E+00  0.00000000E+00
  0.00000000E+00  0.00000000E+00  0.00000000E+00
  0.00000000E+00  0.00000000E+00  0.00000000E+00
  0.00000000E+00  0.00000000E+00  0.00000000E+00
  0.00000000E+00  0.00000000E+00  0.00000000E+00
  0.00000000E+00  0.00000000E+00  0.00000000E+00
  0.00000000E+00  0.00000000E+00  0.00000000E+00
  0.00000000E+00  0.00000000E+00  0.00000000E+00
  0.00000000E+00  0.00000000E+00  0.00000000E+00
  0.00000000E+00  0.00000000E+00  0.00000000E+00
  0.00000000E+00  0.00000000E+00  0.00000000E+00
  0.00000000E+00  0.00000000E+00  0.00000000E+00
  0.00000000E+00  0.00000000E+00  0.00000000E+00
  0.00000000E+00  0.00000000E+00  0.00000000E+00
  0.00000000E+00  0.00000000E+00  0.00000000E+00
  0.00000000E+00  0.00000000E+00  0.00000000E+00
  0.00000000E+00  0.00000000E+00  0.00000000E+00
  0.00000000E+00  0.00000000E+00  0.00000000E+00
  0.00000000E+00  0.00000000E+00  0.00000000E+00
  0.00000000E+00  0.00000000E+00  0.00000000E+00
  0.00000000E+00  0.00000000E+00  0.00000000E+00
  0.00000000E+00  0.00000000E+00  0.00000000E+00
  0.00000000E+00  0.00000000E+00  0.00000000E+00
  0.00000000E+00  0.00000000E+00  0.00000000E+00
  0.00000000E+00  0.00000000E+00  0.00000000E+00
  0.00000000E+00  0.00000000E+00  0.00000000E+00
  0.00000000E+00  0.00000000E+00  0.00000000E+00
  0.00000000E+00  0.00000000E+00  0.00000000E+00
  0.00000000E+00  0.00000000E+00  0.00000000E+00
  0.00000000E+00  0.00000000E+00  0.00000000E+00
  0.00000000E+00  0.00000000E+00  0.00000000E+00
  0.00000000E+00  0.00000000E+00  0.00000000E+00
  0.00000000E+00  0.00000000E+00  0.00000000E+00
  0.00000000E+00  0.00000000E+00  0.00000000E+00
  0.00000000E+00  0.00000000E+00  0.00000000E+00
  0.00000000E+00  0.00000000E+00  0.00000000E+00
  0.00000000E+00  0.00000000E+00  0.00000000E+00
  0.00000000E+00  0.00000000E+00  0.00000000E+00
  0.00000000E+00  0.00000000E+00  0.00000000E+00
  0.00000000E+00  0.00000000E+00  0.00000000E+00
  0.00000000E+00  0.00000000E+00  0.00000000E+00
  0.00000000E+00  0.00000000E+00  0.00000000E+00
  0.00000000E+00  0.00000000E+00  0.00000000E+00
  0.00000000E+00  0.00000000E+00  0.00000000E+00
  0.00000000E+00  0.00000000E+00  0.00000000E+00
  0.00000000E+00  0.00000000E+00  0.00000000E+00
  0.00000000E+00  0.00000000E+00  0.00000000E+00
  0.00000000E+00  0.00000000E+00  0.00000000E+00
  0.00000000E+00  0.00000000E+00  0.00000000E+00
  0.00000000E+00  0.00000000E+00  0.00000000E+00
  0.00000000E+00  0.00000000E+00  0.00000000E+00
  0.00000000E+00  0.00000000E+00  0.00000000E+00
  0.00000000E+00  0.00000000E+00  0.00000000E+00
  0.00000000E+00  0.00000000E+00  0.00000000E+00
  0.00000000E+00  0.00000000E+00  0.00000000E+00
  0.00000000E+00  0.00000000E+00  0.00000000E+00
  0.00000000E+00  0.00000000E+00  0.00000000E+00
  0.00000000E+00  0.00000000E+00  0.00000000E+00
  0.00000000E+00  0.00000000E+00  0.00000000E+00
  0.00000000E+00  0.00000000E+00  0.00000000E+00
  0.00000000E+00  0.00000000E+00  0.00000000E+00
  0.00000000E+00  0.00000000E+00  0.00000000E+00
