 C Cr  H Mo  S                          
   1.00000000000000     
     9.5709464550000014    0.0000000000000000    0.0000000000000000
    -6.3806280268000020   11.0515787236000005    0.0000000000000000
     0.0000000000000000    0.0000000000000000   34.8802625070458063
   C    Cr   H    Mo   S 
    10     1    10    24    48
Direct
  0.9226607897456494  0.4148722178402010  0.9573477065577736
  0.7561062781097866  0.3304532469097447  0.9482303266656036
  0.9270105469977308  0.5129392205888135  0.9784228486493872
  0.7664117358639936  0.4902231180493556  0.9823138896658610
  0.6601065115292540  0.3786112706177184  0.9636859123585878
  0.7942817114746915  0.4392422167646023  0.8639278601637677
  0.8058193705072567  0.6197850873564617  0.8798899925199264
  0.6988068420690762  0.4961992333785535  0.8702325070778664
  0.9663190782818489  0.6406946040265900  0.8800192493905765
  0.9613743743523188  0.5296988539923178  0.8701649420864257
  0.8261939617524994  0.4940070288165864  0.9206876043577955
  0.5297272731837601  0.3372820389578113  0.9616135153479229
  0.5683281330272233  0.4528934449205773  0.8678189778973957
  0.0738671176907462  0.7257507759858086  0.8872072069337313
  0.7699400523948096  0.6855741181083924  0.8876731426574896
  0.7493747454110825  0.3464538570480242  0.8547681963487561
  0.7109263710974518  0.2448808569331735  0.9331950499529469
  0.0259846969123748  0.4050320793552086  0.9500952464426021
  0.0350255814888314  0.5928907407234487  0.9886855485627023
  0.7313641705299964  0.5507304468676871  0.9956383461352000
  0.0649750238825359  0.5172216502967653  0.8666403835049604
  0.5549555954117663  0.0835362111062119  0.2498463241992942
  0.5549581341748341  0.3335353845310799  0.2498450384079591
  0.4470607800294298  0.4179824025711269  0.7357768435214438
  0.5549545773649273  0.5835325906418608  0.2498457022516734
  0.4469752852518091  0.6679474434945794  0.7357465135600275
  0.5549542124816829  0.8335349012097844  0.2498463298327372
  0.4468421120065205  0.9177929292280350  0.7358001420727007
  0.8883033267204259  0.3335371964212965  0.2498539828261388
  0.7803350584343799  0.1678424985964304  0.7357311219150892
  0.7803653837286149  0.4180427429020152  0.7357784672607978
  0.8883023888364279  0.5835337827772491  0.2498540708150202
  0.7802464957317452  0.6679061514585662  0.7356349957843040
  0.8883043448853859  0.8335371763139636  0.2498553958979866
  0.7803259868732570  0.9178815056386370  0.7357892826555334
  0.1135296400027563  0.9177840992004128  0.7358183363251027
  0.8883046177784484  0.0835399421465496  0.2498558891367632
  0.2216136666770530  0.8335512935717397  0.2498567716892007
  0.4469244643162901  0.1678563347753642  0.7357259776699397
  0.2216104446025645  0.5835483343293637  0.2498560022532078
  0.1138211489911772  0.4179657446774038  0.7357727246244763
  0.2216136711996695  0.3335525304005063  0.2498559204983127
  0.2216165917615125  0.0835550676580758  0.2498571402163174
  0.1136866547624862  0.1678841715718355  0.7358160250751005
  0.1133869195606706  0.6678089850865012  0.7357177273015210
  0.7765633487602673  0.1660724206452811  0.2944248783959588
  0.8920179413775232  0.0853612375336156  0.7803522435328475
  0.7765882344592245  0.1660788241874335  0.2052855287970018
  0.8921560392442079  0.0853204769390075  0.6912032150202166
  0.2252044297518973  0.0852374552314039  0.6912177094074580
  0.1099083600305587  0.1660950093210829  0.2052892272500212
  0.7765617585124109  0.4160678023276275  0.2944239569243636
  0.8921720316272091  0.3353110405233401  0.7802475920957843
  0.1099070423162206  0.6660918026466917  0.2052885463463551
  0.5586762628221672  0.8353909239471941  0.6912155904067862
  0.8921544489090418  0.3354356682515892  0.6912019188787574
  0.2254498645878823  0.0853229924711347  0.7803565201274854
  0.1099105441190303  0.1660985693340178  0.2944309548766151
  0.7765612033993304  0.6660659765874838  0.2944238306387115
  0.8918092343805193  0.5857035208327266  0.7801099061504436
  0.7765880775213113  0.6660765101504479  0.2052860625165141
  0.8919363268700740  0.5852773419796734  0.6910763782705615
  0.7765620442198610  0.9160692853835543  0.2944248899187246
  0.8918024992735237  0.8350482493181101  0.7803621181396142
  0.7765869642275482  0.4160755103182059  0.2052840436955188
  0.4432196122816081  0.9160730402268139  0.2052832404239430
  0.4432543469598205  0.9160854265829255  0.2944220068249222
  0.2253447178805306  0.5852961327602901  0.6911802909048615
  0.2252935889205216  0.5853966123962403  0.7803553800881071
  0.1099093957408319  0.9160964894677102  0.2944309195216666
  0.2250440556776211  0.8350386028952640  0.7803848973494840
  0.1099100559110115  0.9160958598517759  0.2052895485616986
  0.2252806838003896  0.8353522391739013  0.6912147187419425
  0.1099057997583186  0.6660932304169193  0.2944301839782893
  0.7765897883199178  0.9160810148939368  0.2052869040003345
  0.4432574512351105  0.1660878199055831  0.2944222593086016
  0.5587418175905400  0.0854348366718762  0.7803301155082669
  0.4432207300199743  0.1660722461529788  0.2052821024434548
  0.5586048456826913  0.0852286766893669  0.6911919295091886
  0.4432553061437789  0.4160841841464763  0.2944214235364415
  0.5585788069883839  0.3352326226932472  0.7802778820650683
  0.4432186575862431  0.4160699836437358  0.2052816283038415
  0.5587104131983883  0.3354049573816135  0.6911906731497041
  0.2254154672778996  0.3353010167087915  0.6912227297028402
  0.1099072938459125  0.4160926009411630  0.2052877505478029
  0.4432532516555699  0.6660831580611654  0.2944214357144512
  0.5589192805928653  0.5855049023904841  0.7803442028561022
  0.4432177297782910  0.6660702200717523  0.2052829162165185
  0.5584063259751014  0.5852680536296618  0.6911396426602832
  0.2255424977012317  0.3354440924575371  0.7803760530756207
  0.1099069191917340  0.4160948026039128  0.2944301916369400
  0.5586460048075617  0.8352733691224000  0.7803557342106130
  0.8921161306064134  0.8355177468065133  0.6911661726121395
 
  0.00000000E+00  0.00000000E+00  0.00000000E+00
  0.00000000E+00  0.00000000E+00  0.00000000E+00
  0.00000000E+00  0.00000000E+00  0.00000000E+00
  0.00000000E+00  0.00000000E+00  0.00000000E+00
  0.00000000E+00  0.00000000E+00  0.00000000E+00
  0.00000000E+00  0.00000000E+00  0.00000000E+00
  0.00000000E+00  0.00000000E+00  0.00000000E+00
  0.00000000E+00  0.00000000E+00  0.00000000E+00
  0.00000000E+00  0.00000000E+00  0.00000000E+00
  0.00000000E+00  0.00000000E+00  0.00000000E+00
  0.00000000E+00  0.00000000E+00  0.00000000E+00
  0.00000000E+00  0.00000000E+00  0.00000000E+00
  0.00000000E+00  0.00000000E+00  0.00000000E+00
  0.00000000E+00  0.00000000E+00  0.00000000E+00
  0.00000000E+00  0.00000000E+00  0.00000000E+00
  0.00000000E+00  0.00000000E+00  0.00000000E+00
  0.00000000E+00  0.00000000E+00  0.00000000E+00
  0.00000000E+00  0.00000000E+00  0.00000000E+00
  0.00000000E+00  0.00000000E+00  0.00000000E+00
  0.00000000E+00  0.00000000E+00  0.00000000E+00
  0.00000000E+00  0.00000000E+00  0.00000000E+00
  0.00000000E+00  0.00000000E+00  0.00000000E+00
  0.00000000E+00  0.00000000E+00  0.00000000E+00
  0.00000000E+00  0.00000000E+00  0.00000000E+00
  0.00000000E+00  0.00000000E+00  0.00000000E+00
  0.00000000E+00  0.00000000E+00  0.00000000E+00
  0.00000000E+00  0.00000000E+00  0.00000000E+00
  0.00000000E+00  0.00000000E+00  0.00000000E+00
  0.00000000E+00  0.00000000E+00  0.00000000E+00
  0.00000000E+00  0.00000000E+00  0.00000000E+00
  0.00000000E+00  0.00000000E+00  0.00000000E+00
  0.00000000E+00  0.00000000E+00  0.00000000E+00
  0.00000000E+00  0.00000000E+00  0.00000000E+00
  0.00000000E+00  0.00000000E+00  0.00000000E+00
  0.00000000E+00  0.00000000E+00  0.00000000E+00
  0.00000000E+00  0.00000000E+00  0.00000000E+00
  0.00000000E+00  0.00000000E+00  0.00000000E+00
  0.00000000E+00  0.00000000E+00  0.00000000E+00
  0.00000000E+00  0.00000000E+00  0.00000000E+00
  0.00000000E+00  0.00000000E+00  0.00000000E+00
  0.00000000E+00  0.00000000E+00  0.00000000E+00
  0.00000000E+00  0.00000000E+00  0.00000000E+00
  0.00000000E+00  0.00000000E+00  0.00000000E+00
  0.00000000E+00  0.00000000E+00  0.00000000E+00
  0.00000000E+00  0.00000000E+00  0.00000000E+00
  0.00000000E+00  0.00000000E+00  0.00000000E+00
  0.00000000E+00  0.00000000E+00  0.00000000E+00
  0.00000000E+00  0.00000000E+00  0.00000000E+00
  0.00000000E+00  0.00000000E+00  0.00000000E+00
  0.00000000E+00  0.00000000E+00  0.00000000E+00
  0.00000000E+00  0.00000000E+00  0.00000000E+00
  0.00000000E+00  0.00000000E+00  0.00000000E+00
  0.00000000E+00  0.00000000E+00  0.00000000E+00
  0.00000000E+00  0.00000000E+00  0.00000000E+00
  0.00000000E+00  0.00000000E+00  0.00000000E+00
  0.00000000E+00  0.00000000E+00  0.00000000E+00
  0.00000000E+00  0.00000000E+00  0.00000000E+00
  0.00000000E+00  0.00000000E+00  0.00000000E+00
  0.00000000E+00  0.00000000E+00  0.00000000E+00
  0.00000000E+00  0.00000000E+00  0.00000000E+00
  0.00000000E+00  0.00000000E+00  0.00000000E+00
  0.00000000E+00  0.00000000E+00  0.00000000E+00
  0.00000000E+00  0.00000000E+00  0.00000000E+00
  0.00000000E+00  0.00000000E+00  0.00000000E+00
  0.00000000E+00  0.00000000E+00  0.00000000E+00
  0.00000000E+00  0.00000000E+00  0.00000000E+00
  0.00000000E+00  0.00000000E+00  0.00000000E+00
  0.00000000E+00  0.00000000E+00  0.00000000E+00
  0.00000000E+00  0.00000000E+00  0.00000000E+00
  0.00000000E+00  0.00000000E+00  0.00000000E+00
  0.00000000E+00  0.00000000E+00  0.00000000E+00
  0.00000000E+00  0.00000000E+00  0.00000000E+00
  0.00000000E+00  0.00000000E+00  0.00000000E+00
  0.00000000E+00  0.00000000E+00  0.00000000E+00
  0.00000000E+00  0.00000000E+00  0.00000000E+00
  0.00000000E+00  0.00000000E+00  0.00000000E+00
  0.00000000E+00  0.00000000E+00  0.00000000E+00
  0.00000000E+00  0.00000000E+00  0.00000000E+00
  0.00000000E+00  0.00000000E+00  0.00000000E+00
  0.00000000E+00  0.00000000E+00  0.00000000E+00
  0.00000000E+00  0.00000000E+00  0.00000000E+00
  0.00000000E+00  0.00000000E+00  0.00000000E+00
  0.00000000E+00  0.00000000E+00  0.00000000E+00
  0.00000000E+00  0.00000000E+00  0.00000000E+00
  0.00000000E+00  0.00000000E+00  0.00000000E+00
  0.00000000E+00  0.00000000E+00  0.00000000E+00
  0.00000000E+00  0.00000000E+00  0.00000000E+00
  0.00000000E+00  0.00000000E+00  0.00000000E+00
  0.00000000E+00  0.00000000E+00  0.00000000E+00
  0.00000000E+00  0.00000000E+00  0.00000000E+00
  0.00000000E+00  0.00000000E+00  0.00000000E+00
  0.00000000E+00  0.00000000E+00  0.00000000E+00
  0.00000000E+00  0.00000000E+00  0.00000000E+00
