 C Cr  H Mo  S 
 1.0000000000000000
     9.5709464550000014    0.0000000000000000    0.0000000000000000
    -6.3806280268000020   11.0515787236000005    0.0000000000000000
     0.0000000000000000    0.0000000000000000   34.8802625070458063
  10   1  10  24  48
Cartesian
  6.2447009846625727  4.2983261230389997 32.5069808858792442
  5.1009461170992694  3.4975680358590182 32.2352756866617440
  5.8127061706197667  5.5089249754379139 33.1266932593803816
  4.3777775880858680  5.4606962382263911 33.2477055102468739
  3.9382090094170481  4.2039191711291224 32.6872308511275165
  4.9920216960577291  5.2034298323901327 29.1117667684925365
  3.5294239819512483  6.7078920362877819 30.1150146496661080
  3.6180392448421603  5.4053892326015074 29.5106591942096621
  4.8257559843549833  7.3002587863668582 30.0836655435377196
  5.7270997060474897  6.3825043740766034 29.4738995677247075
  4.8481511318860768  5.4037774852254872 31.2081573251271358
  2.9125462087445566  3.8465886608389970 32.6357398345983754
  2.7928920328978526  4.7161371609453653 29.3494476897449879
 -4.4760340160760101  8.2605023583716513 30.5196641098129646
  2.6352945711836311  7.1564040642873348 30.5412321565319687
  5.3937692704699538  4.3312615993947814 28.6013625636356963
  5.1053524027876147  2.5359514650885133 31.7270796937274682
 -2.3028150098338052  4.0559344142772451 32.2279825998403240
 -3.1136422227653600  6.3263807807293269 33.4417643646739151
  3.7474370537681940  6.2133930220457909 33.7149941291522595
 -2.7750396211341259  6.5374925903756411 29.3408819373255554
  4.7854750152839500  0.9209639422765983  8.7203894212259332
  3.1903180085839504  3.6838586231765982  8.7203894212259332
  1.5951572859421390  4.6048253090076150 26.1598745039230707
  1.5951610018839504  6.4467533040765987  8.7203894212259332
  0.0000002792421390  7.3677199899076147 26.1598745039230707
  0.0000039951839503  9.2096479849765984  8.7203894212259332
 -1.5951567274578611 10.1306146708076152 26.1598745039230707
  6.3806334935839502  3.6838586231765982  8.7203894212259332
  6.3806297776421390  1.8419306281076149 26.1598745039230707
  4.7854727709421390  4.6048253090076150 26.1598745039230707
  4.7854764868839510  6.4467533040765987  8.7203894212259332
  3.1903157642421394  7.3677199899076147 26.1598745039230707
  3.1903194801839505  9.2096479849765984  8.7203894212259332
  1.5951587575421391 10.1306146708076152 26.1598745039230707
 -4.7854722124578615 10.1306146708076152 26.1598745039230707
  7.9757905002839511  0.9209639422765983  8.7203894212259332
 -3.1903114898160498  9.2096479849765984  8.7203894212259332
  3.1903142926421393  1.8419306281076149 26.1598745039230707
 -1.5951544831160498  6.4467533040765987  8.7203894212259332
 -1.5951581990578612  4.6048253090076150 26.1598745039230707
  0.0000025235839503  3.6838586231765982  8.7203894212259332
  1.5951595302839503  0.9209639422765983  8.7203894212259332
 -0.0000011923578611  1.8419306281076149 26.1598745039230707
 -3.1903152057578610  7.3677199899076147 26.1598745039230707
  6.3806297776421390  1.8419306281076149 10.2852783946298043
  7.9757905002839511  0.9209639422765983 27.7247625070458064
  6.3806297776421390  1.8419306281076149  7.1554999999999991
  7.9757905002839511  0.9209639422765983 24.5949845851170643
  1.5951595302839503  0.9209639422765983 24.5949845851170643
 -0.0000011923578611  1.8419306281076149  7.1554999999999991
  4.7854727709421390  4.6048253090076150 10.2852783946298043
  6.3806334935839502  3.6838586231765982 27.7247625070458064
 -3.1903152057578610  7.3677199899076147  7.1554999999999991
  0.0000039951839503  9.2096479849765984 24.5949845851170643
  6.3806334935839502  3.6838586231765982 24.5949845851170643
  1.5951595302839503  0.9209639422765983 27.7247625070458064
 -0.0000011923578611  1.8419306281076149 10.2852783946298043
  3.1903157642421394  7.3677199899076147 10.2852783946298043
  4.7854764868839510  6.4467533040765987 27.7247625070458064
  3.1903157642421394  7.3677199899076147  7.1554999999999991
  4.7854764868839510  6.4467533040765987 24.5949845851170643
  1.5951587575421391 10.1306146708076152 10.2852783946298043
  3.1903194801839505  9.2096479849765984 27.7247625070458064
  4.7854727709421390  4.6048253090076150  7.1554999999999991
 -1.5951567274578611 10.1306146708076152  7.1554999999999991
 -1.5951567274578611 10.1306146708076152 10.2852783946298043
 -1.5951544831160498  6.4467533040765987 24.5949845851170643
 -1.5951544831160498  6.4467533040765987 27.7247625070458064
 -4.7854722124578615 10.1306146708076152 10.2852783946298043
 -3.1903114898160498  9.2096479849765984 27.7247625070458064
 -4.7854722124578615 10.1306146708076152  7.1554999999999991
 -3.1903114898160498  9.2096479849765984 24.5949845851170643
 -3.1903152057578610  7.3677199899076147 10.2852783946298043
  1.5951587575421391 10.1306146708076152  7.1554999999999991
  3.1903142926421393  1.8419306281076149 10.2852783946298043
  4.7854750152839500  0.9209639422765983 27.7247625070458064
  3.1903142926421393  1.8419306281076149  7.1554999999999991
  4.7854750152839500  0.9209639422765983 24.5949845851170643
  1.5951572859421390  4.6048253090076150 10.2852783946298043
  3.1903180085839504  3.6838586231765982 27.7247625070458064
  1.5951572859421390  4.6048253090076150  7.1554999999999991
  3.1903180085839504  3.6838586231765982 24.5949845851170643
  0.0000025235839503  3.6838586231765982 24.5949845851170643
 -1.5951581990578612  4.6048253090076150  7.1554999999999991
  0.0000002792421390  7.3677199899076147 10.2852783946298043
  1.5951610018839504  6.4467533040765987 27.7247625070458064
  0.0000002792421390  7.3677199899076147  7.1554999999999991
  1.5951610018839504  6.4467533040765987 24.5949845851170643
  0.0000025235839503  3.6838586231765982 27.7247625070458064
 -1.5951581990578612  4.6048253090076150 10.2852783946298043
  0.0000039951839503  9.2096479849765984 27.7247625070458064
  3.1903194801839505  9.2096479849765984 24.5949845851170643
