 C Cr  H Mo  S                          
   1.00000000000000     
     9.5709464550000014    0.0000000000000000    0.0000000000000000
    -6.3806280268000020   11.0515787236000005    0.0000000000000000
     0.0000000000000000    0.0000000000000000   34.8802625070458063
   C    Cr   H    Mo   S 
    10     1    10    24    48
Direct
  0.2876197016966008  0.2643694976599423  0.5182250552494432
  0.2900751759958082  0.1540208202474994  0.5194683923491579
  0.3568299027684830  0.3293164959366928  0.5530771828865082
  0.4032577427967914  0.2575241876413841  0.5760604638894812
  0.3603094805461076  0.1483541217800476  0.5549762078883074
  0.9007656481628152  0.0201152015696739  0.5778012072004083
  0.0799981252838744  0.1333931045447908  0.6260034494647323
  0.0062866658004816  0.0181610510649320  0.6065402619441473
  0.0188798013279711  0.2051136831743080  0.6087704342487947
  0.9083045407546791  0.1340945881914577  0.5792566023995303
  0.1538827637810521  0.1633628845066253  0.5693906092799775
  0.3784420466715365  0.0747492111149404  0.5643811582705408
  0.0251112732959109  0.9427439568975896  0.6130130955619407
  0.0501172466795890  0.2963828248769593  0.6171146772953724
  0.1640807195427405  0.1604277045590174  0.6498143881242987
  0.8312446740194188  0.9484107765479493  0.5572688261631762
  0.2397872030635150  0.0831760912249388  0.4978113168989096
  0.2363449582033037  0.2924245127652383  0.4953091417913577
  0.3737968972257251  0.4176682655461896  0.5605408283332027
  0.4631155083832930  0.2824775831053050  0.6037979249547691
  0.8458147296025339  0.1641369070589245  0.5600109938306025
  0.5555197857184421  0.0839560149382313  0.2502169834920812
  0.5555205595537407  0.3339564564349407  0.2502167600150069
  0.4525211442949504  0.4100067705255275  0.7568539942496135
  0.5555197582528997  0.5839557535670675  0.2502164434636839
  0.4524455512238621  0.6600172513812687  0.7568337284919185
  0.5555199548018157  0.8339556866223778  0.2502165373823106
  0.4525585565333381  0.9100595665532245  0.7569263578275909
  0.8888589902108711  0.3339518247622076  0.2501983016586659
  0.7859805597597238  0.1600683716199120  0.7569778986081798
  0.7859356388436546  0.4101107158654100  0.7568501287161450
  0.8888590757572705  0.5839501491209278  0.2501981073579268
  0.7857971843177586  0.6600296869061513  0.7568854738983573
  0.8888585198916092  0.8339496285159300  0.2501979880059572
  0.7858536879006888  0.9100439896739372  0.7569751935971838
  0.1191002751104555  0.9097407929193017  0.7570549825302809
  0.8888590023318278  0.0839514105894103  0.2501982431167762
  0.2221725309477449  0.8339594458406426  0.2502026726442228
  0.4529304345170614  0.1601260232302764  0.7570642405880416
  0.2221729072188398  0.5839609817647085  0.2502025709132085
  0.1191167009253875  0.4100147331123714  0.7568119814487341
  0.2221749608683629  0.3339623542716478  0.2502022018979021
  0.2221741458145441  0.0839610993088938  0.2502027697803794
  0.1190669110316704  0.1598487094725084  0.7568537364543518
  0.1191892570188319  0.6599930998554386  0.7568550900161780
  0.7771619980158478  0.1664993083863386  0.2947703015655956
  0.8977876216882593  0.0775528048081338  0.8015305090813526
  0.7771104057074467  0.1664818484886521  0.2056328082400709
  0.8970201222954185  0.0772227187361059  0.7124182500263820
  0.2315474726380134  0.0769331921240522  0.7126578626772841
  0.1104823081444405  0.1665105916632582  0.2056287004141572
  0.7771616104242168  0.4164988477801294  0.2947704972129862
  0.8977579883371876  0.3276929227077685  0.8014418891021221
  0.1104818093699250  0.6665100226172722  0.2056283096545367
  0.5643987206909454  0.8276829443201400  0.7123355144156542
  0.8974309044243857  0.3273290067152522  0.7122758933515085
  0.2308849475490597  0.0775111020525196  0.8015591146281396
  0.1104601205911240  0.1665025088926459  0.2947676472246147
  0.7771608112368990  0.6664969389850848  0.2947700411374867
  0.8975930461362470  0.5775016520825428  0.8014326339044187
  0.7771100435528377  0.6664806699786925  0.2056323815127739
  0.8975538095131993  0.5775825794604610  0.7122882232410183
  0.7771618280437119  0.9164978032626655  0.2947698979816220
  0.8973183464066072  0.8272938040860676  0.8015460285881205
  0.7771098912134297  0.4164808790105278  0.2056325077948613
  0.4438225174204931  0.9165064435073382  0.2056415020892097
  0.4437787642546948  0.9164887051299805  0.2947782705569812
  0.2308867955652860  0.5775456242008123  0.7122452357604515
  0.2308418925445515  0.5773834731951690  0.8014026339505051
  0.1104580698550619  0.9164998653022821  0.2947673972411387
  0.2309725408356565  0.8272271569741150  0.8015329176119649
  0.1104820993638594  0.9165101355368943  0.2056287356377709
  0.2309388091253049  0.8275652112678540  0.7123670061304650
  0.1104573217757174  0.6664992190934946  0.2947675112634920
  0.7771106449082500  0.9164816591622077  0.2056326601981829
  0.4437798892422656  0.1664904548905727  0.2947788304682901
  0.5644426107176527  0.0773936589806810  0.8015806139150859
  0.4438231079381098  0.1665066644115700  0.2056414991291215
  0.5644005347959090  0.0775709146296384  0.7123884539146046
  0.4437797665518761  0.4164902030997684  0.2947786211525557
  0.5644850814583595  0.3277877560252813  0.8014872518842424
  0.4438236493846860  0.4165068457909636  0.2056410763612589
  0.5641272773939191  0.3272695388719017  0.7123216830393362
  0.2309023053084059  0.3274398518464109  0.7122984000336874
  0.1104815985333324  0.4165107766449545  0.2056283927425005
  0.4437789521945364  0.6664888261603246  0.2947782665196619
  0.5640471489435829  0.5774434561111770  0.8014168528071994
  0.4438226101475622  0.6665065209483090  0.2056411732925618
  0.5642794112096190  0.5775321121974543  0.7122838407529429
  0.2307912404575469  0.3274283120042857  0.8013825091439872
  0.1104594828482072  0.4165012394420440  0.2947676047671148
  0.5640521318779266  0.8273301906886306  0.8014784461509941
  0.8977374387467802  0.8276545620431373  0.7123706726853237
 
  0.00000000E+00  0.00000000E+00  0.00000000E+00
  0.00000000E+00  0.00000000E+00  0.00000000E+00
  0.00000000E+00  0.00000000E+00  0.00000000E+00
  0.00000000E+00  0.00000000E+00  0.00000000E+00
  0.00000000E+00  0.00000000E+00  0.00000000E+00
  0.00000000E+00  0.00000000E+00  0.00000000E+00
  0.00000000E+00  0.00000000E+00  0.00000000E+00
  0.00000000E+00  0.00000000E+00  0.00000000E+00
  0.00000000E+00  0.00000000E+00  0.00000000E+00
  0.00000000E+00  0.00000000E+00  0.00000000E+00
  0.00000000E+00  0.00000000E+00  0.00000000E+00
  0.00000000E+00  0.00000000E+00  0.00000000E+00
  0.00000000E+00  0.00000000E+00  0.00000000E+00
  0.00000000E+00  0.00000000E+00  0.00000000E+00
  0.00000000E+00  0.00000000E+00  0.00000000E+00
  0.00000000E+00  0.00000000E+00  0.00000000E+00
  0.00000000E+00  0.00000000E+00  0.00000000E+00
  0.00000000E+00  0.00000000E+00  0.00000000E+00
  0.00000000E+00  0.00000000E+00  0.00000000E+00
  0.00000000E+00  0.00000000E+00  0.00000000E+00
  0.00000000E+00  0.00000000E+00  0.00000000E+00
  0.00000000E+00  0.00000000E+00  0.00000000E+00
  0.00000000E+00  0.00000000E+00  0.00000000E+00
  0.00000000E+00  0.00000000E+00  0.00000000E+00
  0.00000000E+00  0.00000000E+00  0.00000000E+00
  0.00000000E+00  0.00000000E+00  0.00000000E+00
  0.00000000E+00  0.00000000E+00  0.00000000E+00
  0.00000000E+00  0.00000000E+00  0.00000000E+00
  0.00000000E+00  0.00000000E+00  0.00000000E+00
  0.00000000E+00  0.00000000E+00  0.00000000E+00
  0.00000000E+00  0.00000000E+00  0.00000000E+00
  0.00000000E+00  0.00000000E+00  0.00000000E+00
  0.00000000E+00  0.00000000E+00  0.00000000E+00
  0.00000000E+00  0.00000000E+00  0.00000000E+00
  0.00000000E+00  0.00000000E+00  0.00000000E+00
  0.00000000E+00  0.00000000E+00  0.00000000E+00
  0.00000000E+00  0.00000000E+00  0.00000000E+00
  0.00000000E+00  0.00000000E+00  0.00000000E+00
  0.00000000E+00  0.00000000E+00  0.00000000E+00
  0.00000000E+00  0.00000000E+00  0.00000000E+00
  0.00000000E+00  0.00000000E+00  0.00000000E+00
  0.00000000E+00  0.00000000E+00  0.00000000E+00
  0.00000000E+00  0.00000000E+00  0.00000000E+00
  0.00000000E+00  0.00000000E+00  0.00000000E+00
  0.00000000E+00  0.00000000E+00  0.00000000E+00
  0.00000000E+00  0.00000000E+00  0.00000000E+00
  0.00000000E+00  0.00000000E+00  0.00000000E+00
  0.00000000E+00  0.00000000E+00  0.00000000E+00
  0.00000000E+00  0.00000000E+00  0.00000000E+00
  0.00000000E+00  0.00000000E+00  0.00000000E+00
  0.00000000E+00  0.00000000E+00  0.00000000E+00
  0.00000000E+00  0.00000000E+00  0.00000000E+00
  0.00000000E+00  0.00000000E+00  0.00000000E+00
  0.00000000E+00  0.00000000E+00  0.00000000E+00
  0.00000000E+00  0.00000000E+00  0.00000000E+00
  0.00000000E+00  0.00000000E+00  0.00000000E+00
  0.00000000E+00  0.00000000E+00  0.00000000E+00
  0.00000000E+00  0.00000000E+00  0.00000000E+00
  0.00000000E+00  0.00000000E+00  0.00000000E+00
  0.00000000E+00  0.00000000E+00  0.00000000E+00
  0.00000000E+00  0.00000000E+00  0.00000000E+00
  0.00000000E+00  0.00000000E+00  0.00000000E+00
  0.00000000E+00  0.00000000E+00  0.00000000E+00
  0.00000000E+00  0.00000000E+00  0.00000000E+00
  0.00000000E+00  0.00000000E+00  0.00000000E+00
  0.00000000E+00  0.00000000E+00  0.00000000E+00
  0.00000000E+00  0.00000000E+00  0.00000000E+00
  0.00000000E+00  0.00000000E+00  0.00000000E+00
  0.00000000E+00  0.00000000E+00  0.00000000E+00
  0.00000000E+00  0.00000000E+00  0.00000000E+00
  0.00000000E+00  0.00000000E+00  0.00000000E+00
  0.00000000E+00  0.00000000E+00  0.00000000E+00
  0.00000000E+00  0.00000000E+00  0.00000000E+00
  0.00000000E+00  0.00000000E+00  0.00000000E+00
  0.00000000E+00  0.00000000E+00  0.00000000E+00
  0.00000000E+00  0.00000000E+00  0.00000000E+00
  0.00000000E+00  0.00000000E+00  0.00000000E+00
  0.00000000E+00  0.00000000E+00  0.00000000E+00
  0.00000000E+00  0.00000000E+00  0.00000000E+00
  0.00000000E+00  0.00000000E+00  0.00000000E+00
  0.00000000E+00  0.00000000E+00  0.00000000E+00
  0.00000000E+00  0.00000000E+00  0.00000000E+00
  0.00000000E+00  0.00000000E+00  0.00000000E+00
  0.00000000E+00  0.00000000E+00  0.00000000E+00
  0.00000000E+00  0.00000000E+00  0.00000000E+00
  0.00000000E+00  0.00000000E+00  0.00000000E+00
  0.00000000E+00  0.00000000E+00  0.00000000E+00
  0.00000000E+00  0.00000000E+00  0.00000000E+00
  0.00000000E+00  0.00000000E+00  0.00000000E+00
  0.00000000E+00  0.00000000E+00  0.00000000E+00
  0.00000000E+00  0.00000000E+00  0.00000000E+00
  0.00000000E+00  0.00000000E+00  0.00000000E+00
  0.00000000E+00  0.00000000E+00  0.00000000E+00
