 C Cr  H Mo  S 
 1.0000000000000000
     9.5709464550000014    0.0000000000000000    0.0000000000000000
    -6.3806280268000020   11.0515787236000005    0.0000000000000000
     0.0000000000000000    0.0000000000000000   34.8802625070458063
  10   1  10  24  48
Cartesian
  0.9975815327266701  2.7160960268431786 18.4146231149905901
  1.7867232212787407  1.5363995636655143 18.5083465202639026
  1.3462275667322092  3.5807741534620212 19.4948963244052287
  2.3719652648982748  2.9325794664691713 20.2718749825682139
  2.6414262330593283  1.6553301191826650 19.6531134236916074
  8.7218509637805592  0.2673725708098623 20.5381660113749582
  0.3453358521178858  1.0465635144520111 22.3753650062431788
 -6.1237885763076152 11.0256927945330965 21.4205706236858155
 -0.6921058989172749  1.9815552071526521 22.0892479999323541
  8.1458891912272247  1.5122454987375962 20.9627317304023748
  0.6543690367622405  1.7383005865859509 20.3602433520977293
  3.3751405383032380  0.9234673836654387 19.9822955217656535
 -5.4964091046901737 10.1382306944497032 21.3935242127944534
 -0.8494839954481476  2.9299858961619933 22.5994626873770912
  1.0863386442615317  1.1407420007197833 23.1655150428681793
  1.9867471997583219 10.6967483401985728 19.7197520403191326
  1.7172639742958908  0.6722498028901061 17.8515287253399038
  0.2142570537753266  2.8973122414933461 17.6814334152544177
  0.9046978059434844  4.5539173132745834 19.6975149733027237
  2.8797768213774200  3.3485444103204385 21.1386741978006079
  7.3158741105349474  2.0299687707994929 20.4861802714256243
  4.7854750152839500  0.9209639422765983  8.7203894212259332
  3.1903180085839504  3.6838586231765982  8.7203894212259332
  1.5951572859421390  4.6048253090076150 26.1598745039230707
  1.5951610018839504  6.4467533040765987  8.7203894212259332
  0.0000002792421390  7.3677199899076147 26.1598745039230707
  0.0000039951839503  9.2096479849765984  8.7203894212259332
 -1.5951567274578611 10.1306146708076152 26.1598745039230707
  6.3806334935839502  3.6838586231765982  8.7203894212259332
  6.3806297776421390  1.8419306281076149 26.1598745039230707
  4.7854727709421390  4.6048253090076150 26.1598745039230707
  4.7854764868839510  6.4467533040765987  8.7203894212259332
  3.1903157642421394  7.3677199899076147 26.1598745039230707
  3.1903194801839505  9.2096479849765984  8.7203894212259332
  1.5951587575421391 10.1306146708076152 26.1598745039230707
 -4.7854722124578615 10.1306146708076152 26.1598745039230707
  7.9757905002839511  0.9209639422765983  8.7203894212259332
 -3.1903114898160498  9.2096479849765984  8.7203894212259332
  3.1903142926421393  1.8419306281076149 26.1598745039230707
 -1.5951544831160498  6.4467533040765987  8.7203894212259332
 -1.5951581990578612  4.6048253090076150 26.1598745039230707
  0.0000025235839503  3.6838586231765982  8.7203894212259332
  1.5951595302839503  0.9209639422765983  8.7203894212259332
 -0.0000011923578611  1.8419306281076149 26.1598745039230707
 -3.1903152057578610  7.3677199899076147 26.1598745039230707
  6.3806297776421390  1.8419306281076149 10.2852783946298043
  7.9757905002839511  0.9209639422765983 27.7247625070458064
  6.3806297776421390  1.8419306281076149  7.1554999999999991
  7.9757905002839511  0.9209639422765983 24.5949845851170643
  1.5951595302839503  0.9209639422765983 24.5949845851170643
 -0.0000011923578611  1.8419306281076149  7.1554999999999991
  4.7854727709421390  4.6048253090076150 10.2852783946298043
  6.3806334935839502  3.6838586231765982 27.7247625070458064
 -3.1903152057578610  7.3677199899076147  7.1554999999999991
  0.0000039951839503  9.2096479849765984 24.5949845851170643
  6.3806334935839502  3.6838586231765982 24.5949845851170643
  1.5951595302839503  0.9209639422765983 27.7247625070458064
 -0.0000011923578611  1.8419306281076149 10.2852783946298043
  3.1903157642421394  7.3677199899076147 10.2852783946298043
  4.7854764868839510  6.4467533040765987 27.7247625070458064
  3.1903157642421394  7.3677199899076147  7.1554999999999991
  4.7854764868839510  6.4467533040765987 24.5949845851170643
  1.5951587575421391 10.1306146708076152 10.2852783946298043
  3.1903194801839505  9.2096479849765984 27.7247625070458064
  4.7854727709421390  4.6048253090076150  7.1554999999999991
 -1.5951567274578611 10.1306146708076152  7.1554999999999991
 -1.5951567274578611 10.1306146708076152 10.2852783946298043
 -1.5951544831160498  6.4467533040765987 24.5949845851170643
 -1.5951544831160498  6.4467533040765987 27.7247625070458064
 -4.7854722124578615 10.1306146708076152 10.2852783946298043
 -3.1903114898160498  9.2096479849765984 27.7247625070458064
 -4.7854722124578615 10.1306146708076152  7.1554999999999991
 -3.1903114898160498  9.2096479849765984 24.5949845851170643
 -3.1903152057578610  7.3677199899076147 10.2852783946298043
  1.5951587575421391 10.1306146708076152  7.1554999999999991
  3.1903142926421393  1.8419306281076149 10.2852783946298043
  4.7854750152839500  0.9209639422765983 27.7247625070458064
  3.1903142926421393  1.8419306281076149  7.1554999999999991
  4.7854750152839500  0.9209639422765983 24.5949845851170643
  1.5951572859421390  4.6048253090076150 10.2852783946298043
  3.1903180085839504  3.6838586231765982 27.7247625070458064
  1.5951572859421390  4.6048253090076150  7.1554999999999991
  3.1903180085839504  3.6838586231765982 24.5949845851170643
  0.0000025235839503  3.6838586231765982 24.5949845851170643
 -1.5951581990578612  4.6048253090076150  7.1554999999999991
  0.0000002792421390  7.3677199899076147 10.2852783946298043
  1.5951610018839504  6.4467533040765987 27.7247625070458064
  0.0000002792421390  7.3677199899076147  7.1554999999999991
  1.5951610018839504  6.4467533040765987 24.5949845851170643
  0.0000025235839503  3.6838586231765982 27.7247625070458064
 -1.5951581990578612  4.6048253090076150 10.2852783946298043
  0.0000039951839503  9.2096479849765984 27.7247625070458064
  3.1903194801839505  9.2096479849765984 24.5949845851170643
