 C Cr  H Mo  S 
 1.0000000000000000
    15.9000000000000004    0.0000000000000000    0.0000000000000000
    -7.9500000000000037   13.7698039201725724    0.0000000000000000
     0.0000000000000000    0.0000000000000000   54.3800000000000026
  10   1  10  50 100
Cartesian
  6.2778478698742548 10.7216934939807818 48.9218788717684916
  6.4318930950307935  9.6988702169011471 47.9455003391228445
  4.8856489866878903 10.9941009533341170 49.0761156131862464
  4.1596826449726398 10.1246044483016053 48.1856445516921852
  5.1299890049592562  9.3198343309276250 47.4801719432934561
  6.5637437198428286 12.3587738231936299 45.5820991505357043
  4.2706084470769170 12.0795527809172576 45.3125233027817345
  5.5546682172425559 11.5516595654820513 44.9355206572904606
  4.4854677369745941 13.1963416537334286 46.1721603730672499
  5.8877838884800973 13.3704874844331076 46.3444707095204649
  5.3759340151355612 11.3641396457277128 47.0158014367856651
  4.9131022698359814  8.5496698570713914 46.7438789130479790
  5.7320225803785130 10.7209964793190924 44.2569414386310669
  7.6408162194426454 12.2435709292836030 45.4860048407747968
  3.3029377573936265 11.6847085845829604 45.0125177985524942
 11.6577148289894570  0.0014474169221132 46.6713466454194119
  7.3785588080720235  9.3072470414393642 47.5802000134155989
  7.0889470548392648 11.2517225487762236 49.4170465249906101
  4.4537807407820313 11.7364155415802394 49.7435504986157895
  3.0782905390245632 10.0571516158150143 48.0946416972469137
 14.3104920622684002  0.3502095251577281 46.9759938920235740
  4.7700000000000005  8.2618823521035445 40.7850000000000037
 -3.1800000000000002 11.0158431361380593 13.5950000000000006
 -1.5900000000000003  8.2618823521035445 40.7850000000000037
  3.1800000000000006 11.0158431361380593 13.5950000000000006
 -1.5900000000000003  8.2618823521035445 13.5950000000000006
  3.1800000000000006 11.0158431361380593 40.7850000000000037
  0.0000000000000000  5.5079215680690297 13.5950000000000006
 12.7200000000000006  0.0000000000000000 13.5950000000000006
  1.5900000000000001  2.7539607840345148 40.7850000000000037
 12.7200000000000006  0.0000000000000000 40.7850000000000037
  1.5900000000000001  2.7539607840345148 13.5950000000000006
 -3.1800000000000002 11.0158431361380593 40.7850000000000037
  0.0000000000000000  5.5079215680690297 40.7850000000000037
  4.7700000000000005  8.2618823521035445 13.5950000000000006
  1.5899999999999999  8.2618823521035445 13.5950000000000006
  6.3600000000000003  0.0000000000000000 40.7850000000000037
  6.3600000000000012  5.5079215680690297 40.7850000000000037
  4.7700000000000005  2.7539607840345148 13.5950000000000006
  6.3600000000000012  5.5079215680690297 13.5950000000000006
  4.7700000000000005  2.7539607840345148 40.7850000000000037
  3.1800000000000002  5.5079215680690297 13.5950000000000006
  7.9500000000000011  2.7539607840345148 40.7850000000000037
  3.1800000000000002  5.5079215680690297 40.7850000000000037
  7.9500000000000011  2.7539607840345148 13.5950000000000006
  0.0000000000000000 11.0158431361380593 40.7850000000000037
  1.5899999999999999  8.2618823521035445 40.7850000000000037
  9.5400000000000009  0.0000000000000000 40.7850000000000037
  0.0000000000000000 11.0158431361380593 13.5950000000000006
  9.5400000000000009  0.0000000000000000 13.5950000000000006
  6.3600000000000003  0.0000000000000000 13.5950000000000006
 11.1300000000000008  2.7539607840345148 13.5950000000000006
  3.1800000000000002  0.0000000000000000 40.7850000000000037
  3.1800000000000002  0.0000000000000000 13.5950000000000006
  0.0000000000000000  0.0000000000000000 13.5950000000000006
  6.3600000000000003 11.0158431361380593 40.7850000000000037
  0.0000000000000000  0.0000000000000000 40.7850000000000037
  6.3600000000000003 11.0158431361380593 13.5950000000000006
 -1.5900000000000001  2.7539607840345148 13.5950000000000006
 -1.5900000000000001  2.7539607840345148 40.7850000000000037
  7.9500000000000002  8.2618823521035445 40.7850000000000037
 -3.1800000000000002  5.5079215680690297 13.5950000000000006
 -3.1800000000000002  5.5079215680690297 40.7850000000000037
 -4.7700000000000005  8.2618823521035445 13.5950000000000006
  9.5400000000000009  5.5079215680690297 40.7850000000000037
 -4.7700000000000005  8.2618823521035445 40.7850000000000037
  7.9500000000000002  8.2618823521035445 13.5950000000000006
  9.5400000000000009  5.5079215680690297 13.5950000000000006
 -6.3600000000000003 11.0158431361380593 40.7850000000000037
 -6.3600000000000003 11.0158431361380593 13.5950000000000006
 11.1300000000000008  2.7539607840345148 40.7850000000000037
 14.3100000000000005  0.9179869280115049 12.0000000000000000
  9.5400000000000009  3.6719477120460198 39.1899999999999977
  9.5400000000000009  3.6719477120460198 42.3800000000000026
  9.5400000000000009  9.1798692801150494 42.3800000000000026
  9.5400000000000009  9.1798692801150494 39.1899999999999977
  9.5400000000000009  3.6719477120460198 12.0000000000000000
  9.5400000000000009  3.6719477120460198 15.1900000000000013
 11.1300000000000008  6.4259084960805346 15.1900000000000013
 11.1300000000000008  0.9179869280115049 39.1899999999999977
 11.1300000000000008  0.9179869280115049 42.3800000000000026
 14.3100000000000005  0.9179869280115049 42.3800000000000026
  7.9500000000000002 11.9338300641495643 12.0000000000000000
 11.1300000000000008  0.9179869280115049 12.0000000000000000
 14.3100000000000005  0.9179869280115049 39.1899999999999977
 11.1300000000000008  0.9179869280115049 15.1900000000000013
 12.7200000000000006  3.6719477120460198 12.0000000000000000
 12.7200000000000006  3.6719477120460198 42.3800000000000026
  7.9500000000000002 11.9338300641495643 15.1900000000000013
  7.9500000000000011  6.4259084960805346 15.1900000000000013
  7.9500000000000011  6.4259084960805346 12.0000000000000000
  4.7700000000000005 11.9338300641495643 12.0000000000000000
  4.7700000000000005 11.9338300641495643 42.3800000000000026
  4.7700000000000005 11.9338300641495643 15.1900000000000013
 11.1300000000000008  6.4259084960805346 12.0000000000000000
  4.7700000000000005 11.9338300641495643 39.1899999999999977
  6.3600000000000003  9.1798692801150494 39.1899999999999977
  6.3600000000000003  9.1798692801150494 42.3800000000000026
 11.1300000000000008  6.4259084960805346 42.3800000000000026
  6.3600000000000003  9.1798692801150494 12.0000000000000000
 11.1300000000000008  6.4259084960805346 39.1899999999999977
  6.3600000000000003  9.1798692801150494 15.1900000000000013
 12.7200000000000006  3.6719477120460198 39.1899999999999977
 12.7200000000000006  3.6719477120460198 15.1900000000000013
  7.9500000000000011  6.4259084960805346 39.1899999999999977
  7.9500000000000011  6.4259084960805346 42.3800000000000026
  9.5400000000000009  9.1798692801150494 15.1900000000000013
 14.3100000000000005  0.9179869280115049 15.1900000000000013
  9.5400000000000009  9.1798692801150494 12.0000000000000000
  1.5900000000000001 11.9338300641495643 39.1899999999999977
  7.9500000000000002  0.9179869280115049 42.3800000000000026
  1.5900000000000001 11.9338300641495643 12.0000000000000000
  3.1800000000000002  3.6719477120460198 12.0000000000000000
  3.1800000000000002  3.6719477120460198 15.1900000000000013
  4.7700000000000005  0.9179869280115049 39.1899999999999977
  4.7700000000000005  0.9179869280115049 42.3800000000000026
  4.7700000000000005  0.9179869280115049 12.0000000000000000
  4.7700000000000005  0.9179869280115049 15.1900000000000013
 -4.7700000000000005 11.9338300641495643 39.1899999999999977
 -4.7700000000000005 11.9338300641495643 42.3800000000000026
 -4.7700000000000005 11.9338300641495643 12.0000000000000000
 -4.7700000000000005 11.9338300641495643 15.1900000000000013
 -3.1800000000000006  9.1798692801150494 39.1899999999999977
 -3.1800000000000006  9.1798692801150494 42.3800000000000026
  3.1800000000000002  3.6719477120460198 42.3800000000000026
 -3.1800000000000006  9.1798692801150494 12.0000000000000000
 -1.5900000000000001  6.4259084960805346 39.1899999999999977
 -1.5900000000000001  6.4259084960805346 42.3800000000000026
 -1.5900000000000001  6.4259084960805346 12.0000000000000000
 -1.5900000000000001  6.4259084960805346 15.1900000000000013
  0.0000000000000000  3.6719477120460198 39.1899999999999977
  0.0000000000000000  3.6719477120460198 42.3800000000000026
  0.0000000000000000  3.6719477120460198 12.0000000000000000
  0.0000000000000000  3.6719477120460198 15.1900000000000013
  1.5900000000000001  0.9179869280115049 39.1899999999999977
  1.5900000000000001  0.9179869280115049 42.3800000000000026
  1.5900000000000001  0.9179869280115049 12.0000000000000000
  1.5900000000000001  0.9179869280115049 15.1900000000000013
 -3.1800000000000006  9.1798692801150494 15.1900000000000013
  3.1800000000000002  3.6719477120460198 39.1899999999999977
  1.5900000000000001  6.4259084960805346 15.1900000000000013
  1.5900000000000001  6.4259084960805346 12.0000000000000000
  1.5900000000000001 11.9338300641495643 15.1900000000000013
  3.1799999999999997  9.1798692801150494 39.1899999999999977
  3.1799999999999997  9.1798692801150494 42.3800000000000026
  3.1799999999999997  9.1798692801150494 12.0000000000000000
  3.1799999999999997  9.1798692801150494 15.1900000000000013
  4.7700000000000005  6.4259084960805346 39.1899999999999977
  4.7700000000000005  6.4259084960805346 42.3800000000000026
  4.7700000000000005  6.4259084960805346 12.0000000000000000
  4.7700000000000005  6.4259084960805346 15.1900000000000013
  6.3600000000000003  3.6719477120460198 39.1899999999999977
  6.3600000000000003  3.6719477120460198 42.3800000000000026
  6.3600000000000003  3.6719477120460198 12.0000000000000000
  6.3600000000000003  3.6719477120460198 15.1900000000000013
  7.9500000000000002  0.9179869280115049 39.1899999999999977
  7.9500000000000002 11.9338300641495643 42.3800000000000026
  7.9500000000000002  0.9179869280115049 12.0000000000000000
  7.9500000000000002  0.9179869280115049 15.1900000000000013
 -1.5900000000000001 11.9338300641495643 39.1899999999999977
 -1.5900000000000001 11.9338300641495643 42.3800000000000026
 -1.5900000000000001 11.9338300641495643 12.0000000000000000
 -1.5900000000000001 11.9338300641495643 15.1900000000000013
 -0.0000000000000002  9.1798692801150494 39.1899999999999977
 -0.0000000000000002  9.1798692801150494 42.3800000000000026
 -0.0000000000000002  9.1798692801150494 12.0000000000000000
 -0.0000000000000002  9.1798692801150494 15.1900000000000013
  1.5900000000000001  6.4259084960805346 39.1899999999999977
  1.5900000000000001  6.4259084960805346 42.3800000000000026
  1.5900000000000001 11.9338300641495643 42.3800000000000026
  7.9500000000000002 11.9338300641495643 39.1899999999999977
