 C  H                                   
   1.00000000000000     
    20.0000000000000000    0.0000000000000000    0.0000000000000000
     0.0000000000000000   20.0000000000000000    0.0000000000000000
     0.0000000000000000    0.0000000000000000   20.0000000000000000
   C    H 
     1     4
Direct
  0.5513327404707569  0.5017521811528363  0.2200724498238628
  0.5463081134380390  0.5503721792433742  0.2451067665767245
  0.5757118355966466  0.4661228042043556  0.2539979492901678
  0.5015725566653134  0.4829584061163128  0.2064471642748733
  0.5817498455653647  0.5075897813189892  0.1747226674011563
 
  0.00000000E+00  0.00000000E+00  0.00000000E+00
  0.00000000E+00  0.00000000E+00  0.00000000E+00
  0.00000000E+00  0.00000000E+00  0.00000000E+00
  0.00000000E+00  0.00000000E+00  0.00000000E+00
  0.00000000E+00  0.00000000E+00  0.00000000E+00
