chromocene.pdb                          
   1.00000000000000     
    20.0000000000000000    0.0000000000000000    0.0000000000000000
     0.0000000000000000   20.0000000000000000    0.0000000000000000
     0.0000000000000000    0.0000000000000000   20.0000000000000000
   Cr   C    H    C    H 
     1     5     4     5     6
Direct
  0.8278574662331649  0.1602901752323747  0.9023523039236735
  0.8339672116908481  0.2153304571036145  0.9976493684142119
  0.8748603794099596  0.2469689687721429  0.9488151132274188
  0.8559900015941555  0.1479059377104329  0.0053605438189678
  0.9116272551247204  0.1373847330314193  0.9608209512748977
  0.9231187949376263  0.1993538974458725  0.9255382414494518
  0.9409145571775093  0.0918094462457430  0.9562659649732471
  0.8341082438074225  0.1109685054471243  0.0387422890405583
  0.7910725917970249  0.2378367883811669  0.0224188226982465
  0.8688933013889071  0.2978428829648805  0.9305473447807320
  0.7554699034680316  0.1879184995742409  0.8306867984909299
  0.8235200170059260  0.0945914805867744  0.8171956220130935
  0.8152837359724220  0.1635169961651695  0.7983418076931995
  0.7695353837521383  0.0767712848959005  0.8601955578475685
  0.7277727432400620  0.1337607031722741  0.8688187005408908
  0.6835394846804336  0.1361450011405393  0.9004081488512914
  0.8643290675947135  0.0619562721746595  0.8021858226810986
  0.7633866284630197  0.0288084279921178  0.8851610605871222
  0.7342604819163255  0.2377539466943523  0.8258840774808872
  0.8472231109198061  0.1914934718850469  0.7644005811928314
  0.9620196398257868  0.2086421233841523  0.8887108790196822
 
  0.00000000E+00  0.00000000E+00  0.00000000E+00
  0.00000000E+00  0.00000000E+00  0.00000000E+00
  0.00000000E+00  0.00000000E+00  0.00000000E+00
  0.00000000E+00  0.00000000E+00  0.00000000E+00
  0.00000000E+00  0.00000000E+00  0.00000000E+00
  0.00000000E+00  0.00000000E+00  0.00000000E+00
  0.00000000E+00  0.00000000E+00  0.00000000E+00
  0.00000000E+00  0.00000000E+00  0.00000000E+00
  0.00000000E+00  0.00000000E+00  0.00000000E+00
  0.00000000E+00  0.00000000E+00  0.00000000E+00
  0.00000000E+00  0.00000000E+00  0.00000000E+00
  0.00000000E+00  0.00000000E+00  0.00000000E+00
  0.00000000E+00  0.00000000E+00  0.00000000E+00
  0.00000000E+00  0.00000000E+00  0.00000000E+00
  0.00000000E+00  0.00000000E+00  0.00000000E+00
  0.00000000E+00  0.00000000E+00  0.00000000E+00
  0.00000000E+00  0.00000000E+00  0.00000000E+00
  0.00000000E+00  0.00000000E+00  0.00000000E+00
  0.00000000E+00  0.00000000E+00  0.00000000E+00
  0.00000000E+00  0.00000000E+00  0.00000000E+00
  0.00000000E+00  0.00000000E+00  0.00000000E+00
