chromocene.pdb
1.000 
20.0  0.0  0.0
0.0  20.0  0.0
0.0  0.0  20.0
Cr  C   H   C   H   
1   5   4   5   6   
Cartesian
    -3.4540000000000001812      3.1850000000000000533     -2.0339999999999998082
    -4.1390000000000002345      4.3840000000000003411     -0.2000000000000000111
    -2.7980000000000000426      5.3929999999999997939     -1.5600000000000000533
    -3.3639999999999998792      2.4060000000000001386      0.2059999999999999887
    -1.6370000000000000107      2.1290000000000000036     -1.0620000000000000551
    -1.2709999999999999076      3.9729999999999998650     -2.1360000000000001208
    -1.3790000000000000036      1.1330000000000000071     -1.4630000000000000782
    -4.0679999999999996163      1.5740000000000000657      0.3499999999999999778
    -5.0209999999999999076      4.7999999999999998224      0.3330000000000000182
    -3.3130000000000001670      5.9539999999999997371     -2.3660000000000001030
    -4.9219999999999997087      4.4539999999999997371     -3.2050000000000000711
    -2.8340000000000000746      1.6539999999999999147     -3.6099999999999998757
    -3.1640000000000001457      3.7040000000000001812     -4.2339999999999999858
    -4.3970000000000002416      1.1330000000000000071     -2.1989999999999998437
    -5.7060000000000004050      2.8490000000000001990     -1.9730000000000000870
    -6.1289999999999995595      3.1219999999999998863     -0.9899999999999999911
    -1.8060000000000000497      1.2760000000000000231     -3.4900000000000002132
    -4.2350000000000003197      0.4199999999999999845     -1.3689999999999999947
    -4.8899999999999996803      5.4870000000000000995     -2.8149999999999999467
    -2.2770000000000001350      4.3520000000000003126     -4.3579999999999996518
    -1.0209999999999999076      3.9590000000000000746     -3.2149999999999998579
