 C Cr  H Mo  S                          
   1.00000000000000     
     9.5709464550000014    0.0000000000000000    0.0000000000000000
    -6.3806280268000020   11.0515787236000005    0.0000000000000000
     0.0000000000000000    0.0000000000000000   34.8802625070458063
   C    Cr   H    Mo   S 
    10     1    10    24    48
Direct
  0.8051818285851062  0.6436118283205416  0.9487709982095310
  0.7988815886014079  0.7034439749592412  0.9156963059480553
  0.1115456291755792  0.7614584414357991  0.9459650234866160
  0.1007632684328690  0.8275842626737243  0.9145255173380471
  0.9471824366750712  0.7912039981863580  0.8977132586183119
  0.8201742300955219  0.5502549385618274  0.8555619094134878
  0.1400079253646865  0.6290384962306149  0.8810570561257974
  0.9608028187565845  0.6599135704375618  0.9573148184139921
  0.0271130944221451  0.5051546777754802  0.8802662295306567
  0.8612121207537681  0.4690332659991035  0.8730721248740629
  0.9683254116347187  0.6323590473266246  0.9047122693494256
 -0.0587556763814417  0.8309587475409570  0.8705752491077494
  0.8929252712233273  0.6086109133375543  0.8320005472781881
  0.0543543615103671  0.4372961415430002  0.8918375952237905
  0.2711722706421945  0.6715575281454798  0.8815670907125265
  0.6933172145470432  0.5250634732441344  0.8551945225986358
  0.6847740623899183  0.6811895130380132  0.9019124231661368
  0.6962049611119071  0.5769178037077455  0.9636039971980455
  0.2276547694898783  0.7786148368049559  0.9570420067276313
  0.2090928126628755  0.8955688265282740  0.8997682733351996
  0.7679987698496082  0.3823672560106078  0.8845824168373793
  0.5547401257371709  0.0834985442565784  0.2499182166145616
  0.5547418887601547  0.3334996639530466  0.2499175216235175
  0.4381295299914330  0.4092232245611095  0.7454181544416715
  0.5547408931524992  0.5834999815923640  0.2499182840048581
  0.4353816213115714  0.6588300846654616  0.7462032890548332
  0.5547401028569716  0.8334986767298811  0.2499179134760559
  0.4335224436892701  0.9070601393626192  0.7470588988127732
  0.8880875859886876  0.3335014205204997  0.2499241968134600
  0.7658154798483369  0.1557185083286774  0.7471179496939866
  0.7694312492264352  0.4146274964884056  0.7449555950250563
  0.8880892918254093  0.5835010784430030  0.2499234069586352
  0.7714948644530720  0.6561437535924934  0.7445374112837029
  0.8880903295717066  0.8335010958725704  0.2499237142011332
  0.7689461821240398  0.9077786449523586  0.7468631147678229
  0.1003944205631084  0.9058077212164231  0.7456619732592600
  0.8880882407566606  0.0835007016929628  0.2499242452286040
  0.2213975045302362  0.8335141561933270  0.2499267167905545
  0.4364987869388033  0.1591268688948939  0.7464437479812902
  0.2213983901447735  0.5835173802024672  0.2499266327917805
  0.1034394562472895  0.4114200409006516  0.7457567207024889
  0.2213978486632575  0.3335166705258313  0.2499272746753899
  0.2213983311663765  0.0835153441282782  0.2499272437578433
  0.1016495922149572  0.1583721319713969  0.7464912409930941
  0.0967531183242620  0.6568592786324575  0.7445894626929792
  0.7763580789090291  0.1660360759741374  0.2944985459825072
  0.8820419013991966  0.0757727249490267  0.7916746452506015
  0.7763771085974627  0.1660412143610797  0.2053497611341760
  0.8787532859095581  0.0751639954743907  0.7023034642881083
  0.2139779114970473  0.0759412387524633  0.7018318016494516
  0.1097061470774289  0.1660612686794125  0.2053525147957266
  0.7763580650104998  0.4160368938756509  0.2944982045985952
  0.8804781906986892  0.3320190147494230  0.7896866482141909
  0.1097063161779326  0.6660612352784905  0.2053512361808523
  0.5472777399821087  0.8262825821077501  0.7023852850359359
  0.8749705179321311  0.3240678915378394  0.7023395164882794
  0.2129700333371011  0.0741921666788583  0.7905887281652783
  0.1096964702482971  0.1660576736115198  0.2945054043076480
  0.7763598068871949  0.6660363555475951  0.2944980747420305
  0.8708190079678171  0.3181694676457896  0.6470656225956440
  0.7763775623042907  0.6660416625833956  0.2053489188156036
  0.8805742262289481  0.5763454069029190  0.6999466102261445
  0.7763583349383503  0.9160350713875055  0.2944981039336259
  0.8805262577837947  0.8192784433547704  0.7901654396970376
  0.7763787166638816  0.4160421360648915  0.2053487230751491
  0.4430156497340773  0.9160358696721942  0.2053474481645921
  0.4430451728111737  0.9160455217307943  0.2944975744260109
  0.2143067110758494  0.5774898974225253  0.7008500677853571
  0.2081521711994986  0.5766102064255237  0.7902122063668677
  0.1096969110507659  0.9160566510382430  0.2945052334525236
  0.2040921425417076  0.8192731174305676  0.7905474917413821
  0.1097072443268029  0.9160607609919228  0.2053517564796128
  0.2147546521395576  0.8243883149295218  0.7011447827536562
  0.1096951407216100  0.6660570309101659  0.2945052129492718
  0.7763776225850599  0.9160410932052354  0.2053493552225106
  0.4430470359362360  0.1660474276290828  0.2944974943008194
  0.5440299587711693  0.0749391219913282  0.7917486334826419
  0.4430163261521008  0.1660359577565633  0.2053477157806499
  0.5459719766974018  0.0740618822129226  0.7024182730125939
  0.4430469184106828  0.4160467389003439  0.2944974465856657
  0.5529441281770868  0.3312033137071425  0.7904113404372580
  0.4430168036179257  0.4160381250707131  0.2053476002795001
  0.5501158120798033  0.3260007119871732  0.7009441982394126
  0.2128929743575935  0.3257915227845641  0.7016326444241634
  0.1097053673505653  0.4160622374856415  0.2053522098451249
  0.4430454110851564  0.6660469295775227  0.2944976648018451
  0.5521605285571356  0.5753381986363356  0.7899228274087413
  0.4430164037327776  0.6660365681522545  0.2053473228141204
  0.5489146737464236  0.5776734500510746  0.7008800816754216
  0.2158086083782434  0.3280798259454670  0.7902668722844429
  0.1096958624081873  0.4160583423878473  0.2945052334212896
  0.5464265232544759  0.8245270540185820  0.7915258099884267
  0.8771093221488004  0.8245278358578710  0.7011505058205448
 
  0.00000000E+00  0.00000000E+00  0.00000000E+00
  0.00000000E+00  0.00000000E+00  0.00000000E+00
  0.00000000E+00  0.00000000E+00  0.00000000E+00
  0.00000000E+00  0.00000000E+00  0.00000000E+00
  0.00000000E+00  0.00000000E+00  0.00000000E+00
  0.00000000E+00  0.00000000E+00  0.00000000E+00
  0.00000000E+00  0.00000000E+00  0.00000000E+00
  0.00000000E+00  0.00000000E+00  0.00000000E+00
  0.00000000E+00  0.00000000E+00  0.00000000E+00
  0.00000000E+00  0.00000000E+00  0.00000000E+00
  0.00000000E+00  0.00000000E+00  0.00000000E+00
  0.00000000E+00  0.00000000E+00  0.00000000E+00
  0.00000000E+00  0.00000000E+00  0.00000000E+00
  0.00000000E+00  0.00000000E+00  0.00000000E+00
  0.00000000E+00  0.00000000E+00  0.00000000E+00
  0.00000000E+00  0.00000000E+00  0.00000000E+00
  0.00000000E+00  0.00000000E+00  0.00000000E+00
  0.00000000E+00  0.00000000E+00  0.00000000E+00
  0.00000000E+00  0.00000000E+00  0.00000000E+00
  0.00000000E+00  0.00000000E+00  0.00000000E+00
  0.00000000E+00  0.00000000E+00  0.00000000E+00
  0.00000000E+00  0.00000000E+00  0.00000000E+00
  0.00000000E+00  0.00000000E+00  0.00000000E+00
  0.00000000E+00  0.00000000E+00  0.00000000E+00
  0.00000000E+00  0.00000000E+00  0.00000000E+00
  0.00000000E+00  0.00000000E+00  0.00000000E+00
  0.00000000E+00  0.00000000E+00  0.00000000E+00
  0.00000000E+00  0.00000000E+00  0.00000000E+00
  0.00000000E+00  0.00000000E+00  0.00000000E+00
  0.00000000E+00  0.00000000E+00  0.00000000E+00
  0.00000000E+00  0.00000000E+00  0.00000000E+00
  0.00000000E+00  0.00000000E+00  0.00000000E+00
  0.00000000E+00  0.00000000E+00  0.00000000E+00
  0.00000000E+00  0.00000000E+00  0.00000000E+00
  0.00000000E+00  0.00000000E+00  0.00000000E+00
  0.00000000E+00  0.00000000E+00  0.00000000E+00
  0.00000000E+00  0.00000000E+00  0.00000000E+00
  0.00000000E+00  0.00000000E+00  0.00000000E+00
  0.00000000E+00  0.00000000E+00  0.00000000E+00
  0.00000000E+00  0.00000000E+00  0.00000000E+00
  0.00000000E+00  0.00000000E+00  0.00000000E+00
  0.00000000E+00  0.00000000E+00  0.00000000E+00
  0.00000000E+00  0.00000000E+00  0.00000000E+00
  0.00000000E+00  0.00000000E+00  0.00000000E+00
  0.00000000E+00  0.00000000E+00  0.00000000E+00
  0.00000000E+00  0.00000000E+00  0.00000000E+00
  0.00000000E+00  0.00000000E+00  0.00000000E+00
  0.00000000E+00  0.00000000E+00  0.00000000E+00
  0.00000000E+00  0.00000000E+00  0.00000000E+00
  0.00000000E+00  0.00000000E+00  0.00000000E+00
  0.00000000E+00  0.00000000E+00  0.00000000E+00
  0.00000000E+00  0.00000000E+00  0.00000000E+00
  0.00000000E+00  0.00000000E+00  0.00000000E+00
  0.00000000E+00  0.00000000E+00  0.00000000E+00
  0.00000000E+00  0.00000000E+00  0.00000000E+00
  0.00000000E+00  0.00000000E+00  0.00000000E+00
  0.00000000E+00  0.00000000E+00  0.00000000E+00
  0.00000000E+00  0.00000000E+00  0.00000000E+00
  0.00000000E+00  0.00000000E+00  0.00000000E+00
  0.00000000E+00  0.00000000E+00  0.00000000E+00
  0.00000000E+00  0.00000000E+00  0.00000000E+00
  0.00000000E+00  0.00000000E+00  0.00000000E+00
  0.00000000E+00  0.00000000E+00  0.00000000E+00
  0.00000000E+00  0.00000000E+00  0.00000000E+00
  0.00000000E+00  0.00000000E+00  0.00000000E+00
  0.00000000E+00  0.00000000E+00  0.00000000E+00
  0.00000000E+00  0.00000000E+00  0.00000000E+00
  0.00000000E+00  0.00000000E+00  0.00000000E+00
  0.00000000E+00  0.00000000E+00  0.00000000E+00
  0.00000000E+00  0.00000000E+00  0.00000000E+00
  0.00000000E+00  0.00000000E+00  0.00000000E+00
  0.00000000E+00  0.00000000E+00  0.00000000E+00
  0.00000000E+00  0.00000000E+00  0.00000000E+00
  0.00000000E+00  0.00000000E+00  0.00000000E+00
  0.00000000E+00  0.00000000E+00  0.00000000E+00
  0.00000000E+00  0.00000000E+00  0.00000000E+00
  0.00000000E+00  0.00000000E+00  0.00000000E+00
  0.00000000E+00  0.00000000E+00  0.00000000E+00
  0.00000000E+00  0.00000000E+00  0.00000000E+00
  0.00000000E+00  0.00000000E+00  0.00000000E+00
  0.00000000E+00  0.00000000E+00  0.00000000E+00
  0.00000000E+00  0.00000000E+00  0.00000000E+00
  0.00000000E+00  0.00000000E+00  0.00000000E+00
  0.00000000E+00  0.00000000E+00  0.00000000E+00
  0.00000000E+00  0.00000000E+00  0.00000000E+00
  0.00000000E+00  0.00000000E+00  0.00000000E+00
  0.00000000E+00  0.00000000E+00  0.00000000E+00
  0.00000000E+00  0.00000000E+00  0.00000000E+00
  0.00000000E+00  0.00000000E+00  0.00000000E+00
  0.00000000E+00  0.00000000E+00  0.00000000E+00
  0.00000000E+00  0.00000000E+00  0.00000000E+00
  0.00000000E+00  0.00000000E+00  0.00000000E+00
  0.00000000E+00  0.00000000E+00  0.00000000E+00
