 C Co  H Mo  S                          
   1.00000000000000     
     9.5709464550000014    0.0000000000000000    0.0000000000000000
    -6.3806280268000020   11.0515787236000005    0.0000000000000000
     0.0000000000000000    0.0000000000000000   34.8802625070458063
   C    Co   H    Mo   S 
    10     1    10    24    48
Direct
  0.9039793205180732  0.4695756124337102  0.0060158855104448
  0.9763459779821816  0.5227626513278050  0.0420871622177470
  0.9296030018934969  0.5649778389769826  0.9801989433649078
  0.0158938794205438  0.6769963156394595  0.0004742735365222
  0.0445711640410145  0.6509172670776300  0.0387556542888208
  0.6022281068131571  0.4674789082219512  0.0625863067882189
  0.6905625890330166  0.6629972575725195  0.0416927850027733
  0.6867059852005957  0.5917615614715889  0.0739292777782192
  0.6072850853487507  0.5826630949760264  0.0105401041594390
  0.5539777690164589  0.4618462412082804  0.0233420355862598
  0.8008464069894896  0.5650055729325301  0.0278153356075134
  0.1037777151687689  0.7165143331830908  0.0615960028041508
  0.7418202173751778  0.6260784365793931  0.1017904725297112
  0.5922070516341112  0.6089224601564962  0.9818582456717359
  0.7496649358228277  0.7611867754030412  0.0408579531243852
  0.5823426914734838  0.3912094795162390  0.0803464442555921
  0.9746643248605987  0.4743631453280274  0.0678947008437296
  0.8383152102754630  0.3733625525295277  0.9995164497686140
  0.8869578442956042  0.5538480636691070  0.9507681143424449
  0.0499054892186199  0.7659067737798576  0.9890723903425541
  0.4908908159695494  0.3804360518459946  0.0060065944662473
  0.5559521159388083  0.0838398189159035  0.2498778068015596
  0.5559293645320317  0.3338425977365717  0.2498236964374982
  0.4440682503692903  0.4161616962859618  0.7500510492626357
  0.5559077636971798  0.5838139379425165  0.2497782679757990
  0.4440713216546628  0.6661686945105141  0.7500552407371444
  0.5559518966922699  0.8338337209115587  0.2498572651259505
  0.4440767260438947  0.9161669075015992  0.7500513390256274
  0.8892921039125442  0.3338406632583111  0.2498422769698029
  0.7774171752795570  0.1661328573707656  0.7500470109076849
  0.7774177960485193  0.4161294327938775  0.7500533961620089
  0.8892948594634285  0.5838372594932915  0.2497905100229240
  0.7774163505913309  0.6661380917882072  0.7500556919828429
  0.8892909230632676  0.8338564541531824  0.2498148128444022
  0.7774179136293206  0.9161377693836920  0.7500482626597509
  0.1107365571335126  0.9161445481390065  0.7500473594520846
  0.8892987250211825  0.0838536290317273  0.2498709953383464
  0.2226107832454629  0.8338731429194617  0.2498533570974180
  0.4440676762301465  0.1661578452955901  0.7500481694222623
  0.2226181799350389  0.5838598528925084  0.2498229144612384
  0.1107369861624184  0.4161455794972654  0.7500488199980839
  0.2226016264454579  0.3338629889900103  0.2498251112220111
  0.2225974938396614  0.0838711891266470  0.2498592983027678
  0.1107287780326487  0.1661416599116327  0.7500428647756000
  0.1107437544755320  0.6661495938314795  0.7500548399565523
  0.7775594235824302  0.1664302387091315  0.2944315250523324
  0.8891533690496150  0.0835999802887731  0.7945873016091428
  0.7774767063928697  0.1663326902618495  0.2053530424449999
  0.8891335299889671  0.0835835222210871  0.7054744193875787
  0.2224816074835818  0.0836037803991909  0.7054759149440334
  0.1107953081761530  0.1663521726667166  0.2053378110264459
  0.7775315211005940  0.4164458876898172  0.2943758098849000
  0.8891522276677448  0.3335894171864175  0.7945919638927099
  0.1109305166249911  0.6664509594534300  0.2052986018884465
  0.5558093614512595  0.8336196437296246  0.7054810742970514
  0.8891428830184899  0.3335932031486704  0.7054793814423415
  0.2224778547091381  0.0836177889073726  0.7945861329261883
  0.1109117208653459  0.1664679367134023  0.2944208888226063
  0.7774708919070644  0.6663372121258506  0.2943406899841454
  0.8891515786926614  0.5835967399474127  0.7945991582323328
  0.7775202185259357  0.6663828674377141  0.2052384994313019
  0.8891450741432686  0.5835901038651009  0.7054871256286470
  0.7775529743059744  0.9163387715416998  0.2944122397142375
  0.8891582622536671  0.8336114221633829  0.7945923037289807
  0.7774763428756172  0.4163046505429489  0.2052872173331155
  0.4442161174042219  0.9164075204055241  0.2053522622441420
  0.4441534799450744  0.9163424876964009  0.2944301382976565
  0.2224858487873440  0.5836175639971604  0.7054834464765843
  0.2224855217356784  0.5836155785375199  0.7945933464899361
  0.1107753395680052  0.9163766624999444  0.2944067558936100
  0.2224946603299869  0.8336309275394308  0.7945919143480670
  0.1109216931334946  0.9164449552094562  0.2053248207208632
  0.2224829681273295  0.8336030239590876  0.7054813030753220
  0.1107763021696719  0.6663545096001708  0.2943813362249129
  0.7774910577630858  0.9164298914831950  0.2053335975311011
  0.4441935054049261  0.1664401698142391  0.2944188219152120
  0.5558229818179946  0.0836345196755948  0.7945888560470620
  0.4441650656318156  0.1663193396835546  0.2053391184773371
  0.5558110409518598  0.0836195238397151  0.7054780631220070
  0.4442141574810883  0.4164339036855422  0.2943704298550435
  0.5558091477066621  0.3336212246000239  0.7945914664146061
  0.4441265209205792  0.4162938864167809  0.2052757327896739
  0.5558211631447678  0.3336264446224350  0.7054819271006798
  0.2224874493938106  0.3336163381096458  0.7054776597092092
  0.1108022885901748  0.4163708567622760  0.2053116204947306
  0.4441989913504184  0.6663049381916361  0.2943831471625349
  0.5558138905086898  0.5836298138316741  0.7945941098096990
  0.4441740590576349  0.6664316450082483  0.2053008612563041
  0.5558187581061688  0.5836296924606721  0.7054855868202181
  0.2224751500804723  0.3336061464423806  0.7945874366458324
  0.1108869981145878  0.4164280685510610  0.2943943048871496
  0.5558308815599785  0.8336444644183582  0.7945914501925629
  0.8891366920669928  0.8335790796475604  0.7054801828724120
 
  0.00000000E+00  0.00000000E+00  0.00000000E+00
  0.00000000E+00  0.00000000E+00  0.00000000E+00
  0.00000000E+00  0.00000000E+00  0.00000000E+00
  0.00000000E+00  0.00000000E+00  0.00000000E+00
  0.00000000E+00  0.00000000E+00  0.00000000E+00
  0.00000000E+00  0.00000000E+00  0.00000000E+00
  0.00000000E+00  0.00000000E+00  0.00000000E+00
  0.00000000E+00  0.00000000E+00  0.00000000E+00
  0.00000000E+00  0.00000000E+00  0.00000000E+00
  0.00000000E+00  0.00000000E+00  0.00000000E+00
  0.00000000E+00  0.00000000E+00  0.00000000E+00
  0.00000000E+00  0.00000000E+00  0.00000000E+00
  0.00000000E+00  0.00000000E+00  0.00000000E+00
  0.00000000E+00  0.00000000E+00  0.00000000E+00
  0.00000000E+00  0.00000000E+00  0.00000000E+00
  0.00000000E+00  0.00000000E+00  0.00000000E+00
  0.00000000E+00  0.00000000E+00  0.00000000E+00
  0.00000000E+00  0.00000000E+00  0.00000000E+00
  0.00000000E+00  0.00000000E+00  0.00000000E+00
  0.00000000E+00  0.00000000E+00  0.00000000E+00
  0.00000000E+00  0.00000000E+00  0.00000000E+00
  0.00000000E+00  0.00000000E+00  0.00000000E+00
  0.00000000E+00  0.00000000E+00  0.00000000E+00
  0.00000000E+00  0.00000000E+00  0.00000000E+00
  0.00000000E+00  0.00000000E+00  0.00000000E+00
  0.00000000E+00  0.00000000E+00  0.00000000E+00
  0.00000000E+00  0.00000000E+00  0.00000000E+00
  0.00000000E+00  0.00000000E+00  0.00000000E+00
  0.00000000E+00  0.00000000E+00  0.00000000E+00
  0.00000000E+00  0.00000000E+00  0.00000000E+00
  0.00000000E+00  0.00000000E+00  0.00000000E+00
  0.00000000E+00  0.00000000E+00  0.00000000E+00
  0.00000000E+00  0.00000000E+00  0.00000000E+00
  0.00000000E+00  0.00000000E+00  0.00000000E+00
  0.00000000E+00  0.00000000E+00  0.00000000E+00
  0.00000000E+00  0.00000000E+00  0.00000000E+00
  0.00000000E+00  0.00000000E+00  0.00000000E+00
  0.00000000E+00  0.00000000E+00  0.00000000E+00
  0.00000000E+00  0.00000000E+00  0.00000000E+00
  0.00000000E+00  0.00000000E+00  0.00000000E+00
  0.00000000E+00  0.00000000E+00  0.00000000E+00
  0.00000000E+00  0.00000000E+00  0.00000000E+00
  0.00000000E+00  0.00000000E+00  0.00000000E+00
  0.00000000E+00  0.00000000E+00  0.00000000E+00
  0.00000000E+00  0.00000000E+00  0.00000000E+00
  0.00000000E+00  0.00000000E+00  0.00000000E+00
  0.00000000E+00  0.00000000E+00  0.00000000E+00
  0.00000000E+00  0.00000000E+00  0.00000000E+00
  0.00000000E+00  0.00000000E+00  0.00000000E+00
  0.00000000E+00  0.00000000E+00  0.00000000E+00
  0.00000000E+00  0.00000000E+00  0.00000000E+00
  0.00000000E+00  0.00000000E+00  0.00000000E+00
  0.00000000E+00  0.00000000E+00  0.00000000E+00
  0.00000000E+00  0.00000000E+00  0.00000000E+00
  0.00000000E+00  0.00000000E+00  0.00000000E+00
  0.00000000E+00  0.00000000E+00  0.00000000E+00
  0.00000000E+00  0.00000000E+00  0.00000000E+00
  0.00000000E+00  0.00000000E+00  0.00000000E+00
  0.00000000E+00  0.00000000E+00  0.00000000E+00
  0.00000000E+00  0.00000000E+00  0.00000000E+00
  0.00000000E+00  0.00000000E+00  0.00000000E+00
  0.00000000E+00  0.00000000E+00  0.00000000E+00
  0.00000000E+00  0.00000000E+00  0.00000000E+00
  0.00000000E+00  0.00000000E+00  0.00000000E+00
  0.00000000E+00  0.00000000E+00  0.00000000E+00
  0.00000000E+00  0.00000000E+00  0.00000000E+00
  0.00000000E+00  0.00000000E+00  0.00000000E+00
  0.00000000E+00  0.00000000E+00  0.00000000E+00
  0.00000000E+00  0.00000000E+00  0.00000000E+00
  0.00000000E+00  0.00000000E+00  0.00000000E+00
  0.00000000E+00  0.00000000E+00  0.00000000E+00
  0.00000000E+00  0.00000000E+00  0.00000000E+00
  0.00000000E+00  0.00000000E+00  0.00000000E+00
  0.00000000E+00  0.00000000E+00  0.00000000E+00
  0.00000000E+00  0.00000000E+00  0.00000000E+00
  0.00000000E+00  0.00000000E+00  0.00000000E+00
  0.00000000E+00  0.00000000E+00  0.00000000E+00
  0.00000000E+00  0.00000000E+00  0.00000000E+00
  0.00000000E+00  0.00000000E+00  0.00000000E+00
  0.00000000E+00  0.00000000E+00  0.00000000E+00
  0.00000000E+00  0.00000000E+00  0.00000000E+00
  0.00000000E+00  0.00000000E+00  0.00000000E+00
  0.00000000E+00  0.00000000E+00  0.00000000E+00
  0.00000000E+00  0.00000000E+00  0.00000000E+00
  0.00000000E+00  0.00000000E+00  0.00000000E+00
  0.00000000E+00  0.00000000E+00  0.00000000E+00
  0.00000000E+00  0.00000000E+00  0.00000000E+00
  0.00000000E+00  0.00000000E+00  0.00000000E+00
  0.00000000E+00  0.00000000E+00  0.00000000E+00
  0.00000000E+00  0.00000000E+00  0.00000000E+00
  0.00000000E+00  0.00000000E+00  0.00000000E+00
  0.00000000E+00  0.00000000E+00  0.00000000E+00
  0.00000000E+00  0.00000000E+00  0.00000000E+00
