 C Co  H Mo  S                          
   1.00000000000000     
     9.5709464550000014    0.0000000000000000    0.0000000000000000
    -6.3806280268000020   11.0515787236000005    0.0000000000000000
     0.0000000000000000    0.0000000000000000   34.8802625070458063
   C    Co   H    Mo   S 
    10     1    10    24    48
Direct
  0.7834288385202091  0.2902568362160641  0.4341436616688445
  0.6796649757776481  0.3032841501343643  0.4609061548194176
  0.7436924305973535  0.3120706880857613  0.3965022370449616
  0.6173418832469583  0.3408537098623697  0.3999908181055306
  0.5775251526034296  0.3351918285090197  0.4397541953439713
  0.4195724132501786  0.0097842995259290  0.4501135568417274
  0.3422167250310292  0.0521924234870053  0.3917768403244029
  0.3102938516599124  0.0408582438760559  0.4320582353263206
  0.4723232707235132  0.0293989830762424  0.3849593267533989
  0.5183178712494154  0.0012384862236839  0.4208666354324163
  0.5454515891089730  0.1714579562354366  0.4217174733624530
  0.4831224172708062  0.3488888403177231  0.4518155655438449
  0.2217622800719409  0.0561704917687198  0.4466589411710149
  0.5292694214360653  0.0360152722823218  0.3574497558987615
  0.2835500504630599  0.0782621379655306  0.3701378452643423
  0.4277927857210486  0.9971982926842461  0.4806889462583332
  0.6762387494363609  0.2889791660844065  0.4917059054711426
  0.8719339695244291  0.2634009596899493  0.4409374442180746
  0.7967413879852084  0.3052396076861014  0.3697144255697846
  0.5589385897061510  0.3592379422660725  0.3762621062241953
  0.6156301806073644  0.9818864439897305  0.4252078837738110
  0.5539621369489791  0.0675284748523775  0.2509149180170305
  0.5541782723593734  0.3179942169821177  0.2508793432998677
  0.4473234288207488  0.4192001571889749  0.7474573598657156
  0.5541374880590882  0.5677922881341644  0.2509383892876844
  0.4473206193368054  0.6691949115260124  0.7474583885465583
  0.5542956455952400  0.8174596529829152  0.2507019327370292
  0.4473178864495948  0.9191929831595363  0.7474580464956223
  0.8873776438949054  0.3178173933192313  0.2510348875348528
  0.7806373603372736  0.1691961840649950  0.7474497625110317
  0.7806399702968702  0.4191992392366910  0.7474490790565252
  0.8875523909496391  0.5680309686336424  0.2508362184217653
  0.7806377131146824  0.6691958933749034  0.7474501708227606
  0.8874238101147751  0.8177779086737850  0.2509030189160690
  0.7806343366386561  0.9191928489021389  0.7474493414906276
  0.1139833908013471  0.9191923853798754  0.7474517814020973
  0.8873832007704673  0.0676285393012758  0.2510638394529222
  0.2203436630891459  0.8176053769737595  0.2507154754484315
  0.4473212754454323  0.1691988146506978  0.7474570597755303
  0.2208114378972752  0.5678852724137309  0.2509115113631185
  0.1139872481373707  0.4191958916025832  0.7474475953381631
  0.2207255755967954  0.3177522770434605  0.2511162158443266
  0.2206176933538454  0.0676697849995781  0.2509568826943458
  0.1139846555740454  0.1691948541507913  0.7474498984140819
  0.1139862943865764  0.6691927058312532  0.7474504448808824
  0.7753635643821210  0.1501289321760061  0.2955547340908123
  0.8923857535869526  0.0866458396396944  0.7920199244397699
  0.7757980973298726  0.1503447349703588  0.2065065956833904
  0.8923844033600701  0.0866516695470115  0.7028924711045517
  0.2257368915713184  0.0866542744245264  0.7028973132100861
  0.1089378178186216  0.1504688224463069  0.2065303942461688
  0.7757412877424404  0.4009003302793705  0.2953264718249337
  0.8923894267409012  0.3366498214311542  0.7920191269272521
  0.1089070596772879  0.6501364375663130  0.2062420397975517
  0.5590367103848290  0.8366466051724381  0.7028985445151631
  0.8923852737786159  0.3366531353105380  0.7028914440836014
  0.2257044716076903  0.0866406271560764  0.7920253665901156
  0.1089981364434561  0.1500938045044362  0.2955917304701663
  0.7757990069949052  0.6504388547808274  0.2954147974853578
  0.8923862079551517  0.5866463875638059  0.7920203738822613
  0.7755192374856702  0.6504212020968774  0.2063320166649000
  0.8923886723713317  0.5866547710753036  0.7028915087394317
  0.7752767189978553  0.8999342440989925  0.2954281095284216
  0.8923806822948791  0.8366452610448681  0.7920211245409637
  0.7757955338409426  0.4003194704545138  0.2063766057645821
  0.4423645082375826  0.9003046787458672  0.2062219786943390
  0.4416300613145110  0.8989654645415165  0.2949485524502706
  0.2257454144541575  0.5866627323192496  0.7028956479229218
  0.2257014329769978  0.5866362312574935  0.7920259659127450
  0.1090105110037724  0.9001053428396502  0.2954123002964010
  0.2257031275241050  0.8366360373033753  0.7920269514404354
  0.1088175580817055  0.9005329387674200  0.2062953218804801
  0.2257385518582218  0.8366566821684730  0.7028970562258374
  0.1089395089663340  0.6504909994752779  0.2953510237223159
  0.7762281751716186  0.9006766004454839  0.2063239574083496
  0.4426178748027751  0.1507012409609182  0.2952452130716366
  0.5590583156743213  0.0866497246318042  0.7920293883908412
  0.4423164555159104  0.1503253935603250  0.2063987774971041
  0.5590389390085601  0.0866489137709169  0.7028988328250225
  0.4426360634197071  0.4004785141123046  0.2955366061337034
  0.5590621211148219  0.3366498697860947  0.7920288934190339
  0.4419408993245983  0.4002605875811155  0.2064455317753764
  0.5590425670607005  0.3366552940426963  0.7028979480507856
  0.2257451962076437  0.3366613715895676  0.7028960083404072
  0.1088782953659179  0.4001228619416993  0.2065125884610206
  0.4424600470551159  0.6504320037082781  0.2953818974148900
  0.5590614586317525  0.5866486414834614  0.7920302631343447
  0.4422168051998020  0.6499485248141759  0.2062756448244592
  0.5590424969561367  0.5866535641242292  0.7028986531449056
  0.2257035163215519  0.3366419908920166  0.7920247707812024
  0.1090219495516849  0.4006155458559773  0.2955377250273116
  0.5590590148371695  0.8366482156396381  0.7920300124981932
  0.8923857318445059  0.8366496214364681  0.7028923745731003
 
  0.00000000E+00  0.00000000E+00  0.00000000E+00
  0.00000000E+00  0.00000000E+00  0.00000000E+00
  0.00000000E+00  0.00000000E+00  0.00000000E+00
  0.00000000E+00  0.00000000E+00  0.00000000E+00
  0.00000000E+00  0.00000000E+00  0.00000000E+00
  0.00000000E+00  0.00000000E+00  0.00000000E+00
  0.00000000E+00  0.00000000E+00  0.00000000E+00
  0.00000000E+00  0.00000000E+00  0.00000000E+00
  0.00000000E+00  0.00000000E+00  0.00000000E+00
  0.00000000E+00  0.00000000E+00  0.00000000E+00
  0.00000000E+00  0.00000000E+00  0.00000000E+00
  0.00000000E+00  0.00000000E+00  0.00000000E+00
  0.00000000E+00  0.00000000E+00  0.00000000E+00
  0.00000000E+00  0.00000000E+00  0.00000000E+00
  0.00000000E+00  0.00000000E+00  0.00000000E+00
  0.00000000E+00  0.00000000E+00  0.00000000E+00
  0.00000000E+00  0.00000000E+00  0.00000000E+00
  0.00000000E+00  0.00000000E+00  0.00000000E+00
  0.00000000E+00  0.00000000E+00  0.00000000E+00
  0.00000000E+00  0.00000000E+00  0.00000000E+00
  0.00000000E+00  0.00000000E+00  0.00000000E+00
  0.00000000E+00  0.00000000E+00  0.00000000E+00
  0.00000000E+00  0.00000000E+00  0.00000000E+00
  0.00000000E+00  0.00000000E+00  0.00000000E+00
  0.00000000E+00  0.00000000E+00  0.00000000E+00
  0.00000000E+00  0.00000000E+00  0.00000000E+00
  0.00000000E+00  0.00000000E+00  0.00000000E+00
  0.00000000E+00  0.00000000E+00  0.00000000E+00
  0.00000000E+00  0.00000000E+00  0.00000000E+00
  0.00000000E+00  0.00000000E+00  0.00000000E+00
  0.00000000E+00  0.00000000E+00  0.00000000E+00
  0.00000000E+00  0.00000000E+00  0.00000000E+00
  0.00000000E+00  0.00000000E+00  0.00000000E+00
  0.00000000E+00  0.00000000E+00  0.00000000E+00
  0.00000000E+00  0.00000000E+00  0.00000000E+00
  0.00000000E+00  0.00000000E+00  0.00000000E+00
  0.00000000E+00  0.00000000E+00  0.00000000E+00
  0.00000000E+00  0.00000000E+00  0.00000000E+00
  0.00000000E+00  0.00000000E+00  0.00000000E+00
  0.00000000E+00  0.00000000E+00  0.00000000E+00
  0.00000000E+00  0.00000000E+00  0.00000000E+00
  0.00000000E+00  0.00000000E+00  0.00000000E+00
  0.00000000E+00  0.00000000E+00  0.00000000E+00
  0.00000000E+00  0.00000000E+00  0.00000000E+00
  0.00000000E+00  0.00000000E+00  0.00000000E+00
  0.00000000E+00  0.00000000E+00  0.00000000E+00
  0.00000000E+00  0.00000000E+00  0.00000000E+00
  0.00000000E+00  0.00000000E+00  0.00000000E+00
  0.00000000E+00  0.00000000E+00  0.00000000E+00
  0.00000000E+00  0.00000000E+00  0.00000000E+00
  0.00000000E+00  0.00000000E+00  0.00000000E+00
  0.00000000E+00  0.00000000E+00  0.00000000E+00
  0.00000000E+00  0.00000000E+00  0.00000000E+00
  0.00000000E+00  0.00000000E+00  0.00000000E+00
  0.00000000E+00  0.00000000E+00  0.00000000E+00
  0.00000000E+00  0.00000000E+00  0.00000000E+00
  0.00000000E+00  0.00000000E+00  0.00000000E+00
  0.00000000E+00  0.00000000E+00  0.00000000E+00
  0.00000000E+00  0.00000000E+00  0.00000000E+00
  0.00000000E+00  0.00000000E+00  0.00000000E+00
  0.00000000E+00  0.00000000E+00  0.00000000E+00
  0.00000000E+00  0.00000000E+00  0.00000000E+00
  0.00000000E+00  0.00000000E+00  0.00000000E+00
  0.00000000E+00  0.00000000E+00  0.00000000E+00
  0.00000000E+00  0.00000000E+00  0.00000000E+00
  0.00000000E+00  0.00000000E+00  0.00000000E+00
  0.00000000E+00  0.00000000E+00  0.00000000E+00
  0.00000000E+00  0.00000000E+00  0.00000000E+00
  0.00000000E+00  0.00000000E+00  0.00000000E+00
  0.00000000E+00  0.00000000E+00  0.00000000E+00
  0.00000000E+00  0.00000000E+00  0.00000000E+00
  0.00000000E+00  0.00000000E+00  0.00000000E+00
  0.00000000E+00  0.00000000E+00  0.00000000E+00
  0.00000000E+00  0.00000000E+00  0.00000000E+00
  0.00000000E+00  0.00000000E+00  0.00000000E+00
  0.00000000E+00  0.00000000E+00  0.00000000E+00
  0.00000000E+00  0.00000000E+00  0.00000000E+00
  0.00000000E+00  0.00000000E+00  0.00000000E+00
  0.00000000E+00  0.00000000E+00  0.00000000E+00
  0.00000000E+00  0.00000000E+00  0.00000000E+00
  0.00000000E+00  0.00000000E+00  0.00000000E+00
  0.00000000E+00  0.00000000E+00  0.00000000E+00
  0.00000000E+00  0.00000000E+00  0.00000000E+00
  0.00000000E+00  0.00000000E+00  0.00000000E+00
  0.00000000E+00  0.00000000E+00  0.00000000E+00
  0.00000000E+00  0.00000000E+00  0.00000000E+00
  0.00000000E+00  0.00000000E+00  0.00000000E+00
  0.00000000E+00  0.00000000E+00  0.00000000E+00
  0.00000000E+00  0.00000000E+00  0.00000000E+00
  0.00000000E+00  0.00000000E+00  0.00000000E+00
  0.00000000E+00  0.00000000E+00  0.00000000E+00
  0.00000000E+00  0.00000000E+00  0.00000000E+00
  0.00000000E+00  0.00000000E+00  0.00000000E+00
