 C Cr  H Mo  S 
 1.0000000000000000
    15.9000000000000004    0.0000000000000000    0.0000000000000000
    -7.9500000000000037   13.7698039201725724    0.0000000000000000
     0.0000000000000000    0.0000000000000000   32.3799999999999955
  10   1  10  50 100
Selective dynamics
Cartesian
  5.4979508335075709  6.9922720072772950 13.3269414559665638   T   T   T
  5.3342136455387763  7.3063799751598495 14.7045258433379828   T   T   T
  4.2706746070006645  7.2645092403806135 12.6517433521310476   T   T   T
  3.3281873458917159  7.7604843545370183 13.6221641174233135   T   T   T
  3.9964837318082012  7.7821550128508425 14.9026918595627471   T   T   T
  4.2473065871647782  3.9342856552929546 15.0591381733892433   T   T   T
  2.0794100813367251  4.7229455647883452 14.7635959690958583   T   T   T
  3.1411581329904612  4.5837092008574656 15.7242811645353395   T   T   T
  2.5221966057805094  4.1635991185361529 13.5293231303983408   T   T   T
  3.8506510318536229  3.6821747401238754 13.7023769280712582   T   T   T
  3.8431544455970199  5.8072740113040942 14.1735496956574494   T   T   T
  3.5702605447333950  8.1185450020608467 15.8447620103529268   T   T   T
  3.1022366425234904  4.8789054496094781 16.7698765839668127   T   T   T
  5.1974749614717979  3.6567849629165168 15.5094318761269463   T   T   T
  1.1141738375393420  5.1915969470743830 14.9395979041993225   T   T   T
  1.9659668389004630  4.1712949765182064 12.5938249291102604   T   T   T
  6.0816288824654290  7.1630545775850232 15.4815826660918550   T   T   T
  6.3879794336015632  6.5554869480406932 12.8785313817954314   T   T   T
  4.0818952553000951  7.1129814407247842 11.5913603372085383   T   T   T
  2.3146695639401074  8.0974587715728834 13.4185216884805971   T   T   T
  4.4685641540375869  3.2343420843526478 12.9266882021497658   T   T   T
  4.7700000000000005  8.2618823521035445 21.2850000000000001   T   T   T
 -3.1800000000000002 11.0158431361380593  7.0949999999999998   F   F   F
 -1.5900000000000003  8.2618823521035445 21.2850000000000001   T   T   T
  3.1800000000000006 11.0158431361380593  7.0949999999999998   F   F   F
 -1.5900000000000003  8.2618823521035445  7.0949999999999998   F   F   F
  3.1800000000000006 11.0158431361380593 21.2850000000000001   T   T   T
  0.0000000000000000  5.5079215680690297  7.0949999999999998   F   F   F
 12.7200000000000006  0.0000000000000000  7.0949999999999998   F   F   F
  1.5900000000000001  2.7539607840345148 21.2850000000000001   T   T   T
 12.7200000000000006  0.0000000000000000 21.2850000000000001   T   T   T
  1.5900000000000001  2.7539607840345148  7.0949999999999998   F   F   F
 -3.1800000000000002 11.0158431361380593 21.2850000000000001   T   T   T
  0.0000000000000000  5.5079215680690297 21.2850000000000001   T   T   T
  4.7700000000000005  8.2618823521035445  7.0949999999999998   F   F   F
  1.5899999999999999  8.2618823521035445  7.0949999999999998   F   F   F
  6.3600000000000003  0.0000000000000000 21.2850000000000001   T   T   T
  6.3600000000000012  5.5079215680690297 21.2850000000000001   T   T   T
  4.7700000000000005  2.7539607840345148  7.0949999999999998   F   F   F
  6.3600000000000012  5.5079215680690297  7.0949999999999998   F   F   F
  4.7700000000000005  2.7539607840345148 21.2850000000000001   T   T   T
  3.1800000000000002  5.5079215680690297  7.0949999999999998   F   F   F
  7.9500000000000011  2.7539607840345148 21.2850000000000001   T   T   T
  3.1800000000000002  5.5079215680690297 21.2850000000000001   T   T   T
  7.9500000000000011  2.7539607840345148  7.0949999999999998   F   F   F
  0.0000000000000000 11.0158431361380593 21.2850000000000001   T   T   T
  1.5899999999999999  8.2618823521035445 21.2850000000000001   T   T   T
  9.5400000000000009  0.0000000000000000 21.2850000000000001   T   T   T
  0.0000000000000000 11.0158431361380593  7.0949999999999998   F   F   F
  9.5400000000000009  0.0000000000000000  7.0949999999999998   F   F   F
  6.3600000000000003  0.0000000000000000  7.0949999999999998   F   F   F
 11.1300000000000008  2.7539607840345148  7.0949999999999998   F   F   F
  3.1800000000000002  0.0000000000000000 21.2850000000000001   T   T   T
  3.1800000000000002  0.0000000000000000  7.0949999999999998   F   F   F
  0.0000000000000000  0.0000000000000000  7.0949999999999998   F   F   F
  6.3600000000000003 11.0158431361380593 21.2850000000000001   T   T   T
  0.0000000000000000  0.0000000000000000 21.2850000000000001   T   T   T
  6.3600000000000003 11.0158431361380593  7.0949999999999998   F   F   F
 -1.5900000000000001  2.7539607840345148  7.0949999999999998   F   F   F
 -1.5900000000000001  2.7539607840345148 21.2850000000000001   T   T   T
  7.9500000000000002  8.2618823521035445 21.2850000000000001   T   T   T
 -3.1800000000000002  5.5079215680690297  7.0949999999999998   F   F   F
 -3.1800000000000002  5.5079215680690297 21.2850000000000001   T   T   T
 -4.7700000000000005  8.2618823521035445  7.0949999999999998   F   F   F
  9.5400000000000009  5.5079215680690297 21.2850000000000001   T   T   T
 -4.7700000000000005  8.2618823521035445 21.2850000000000001   T   T   T
  7.9500000000000002  8.2618823521035445  7.0949999999999998   F   F   F
  9.5400000000000009  5.5079215680690297  7.0949999999999998   F   F   F
 -6.3600000000000003 11.0158431361380593 21.2850000000000001   T   T   T
 -6.3600000000000003 11.0158431361380593  7.0949999999999998   F   F   F
 11.1300000000000008  2.7539607840345148 21.2850000000000001   T   T   T
 14.3100000000000005  0.9179869280115049  5.5000000000000000   F   F   F
  9.5400000000000009  3.6719477120460198 19.6899999999999977   T   T   T
  9.5400000000000009  3.6719477120460198 22.8799999999999990   T   T   T
  9.5400000000000009  9.1798692801150494 22.8799999999999990   T   T   T
  9.5400000000000009  9.1798692801150494 19.6899999999999977   T   T   T
  9.5400000000000009  3.6719477120460198  5.5000000000000000   F   F   F
  9.5400000000000009  3.6719477120460198  8.6899999999999995   F   F   F
 11.1300000000000008  6.4259084960805346  8.6899999999999995   F   F   F
 11.1300000000000008  0.9179869280115049 19.6899999999999977   T   T   T
 11.1300000000000008  0.9179869280115049 22.8799999999999990   T   T   T
 14.3100000000000005  0.9179869280115049 22.8799999999999990   T   T   T
  7.9500000000000002 11.9338300641495643  5.5000000000000000   F   F   F
 11.1300000000000008  0.9179869280115049  5.5000000000000000   F   F   F
 14.3100000000000005  0.9179869280115049 19.6899999999999977   T   T   T
 11.1300000000000008  0.9179869280115049  8.6899999999999995   F   F   F
 12.7200000000000006  3.6719477120460198  5.5000000000000000   F   F   F
 12.7200000000000006  3.6719477120460198 22.8799999999999990   T   T   T
  7.9500000000000002 11.9338300641495643  8.6899999999999995   F   F   F
  7.9500000000000011  6.4259084960805346  8.6899999999999995   F   F   F
  7.9500000000000011  6.4259084960805346  5.5000000000000000   F   F   F
  4.7700000000000005 11.9338300641495643  5.5000000000000000   F   F   F
  4.7700000000000005 11.9338300641495643 22.8799999999999990   T   T   T
  4.7700000000000005 11.9338300641495643  8.6899999999999995   F   F   F
 11.1300000000000008  6.4259084960805346  5.5000000000000000   F   F   F
  4.7700000000000005 11.9338300641495643 19.6899999999999977   T   T   T
  6.3600000000000003  9.1798692801150494 19.6899999999999977   T   T   T
  6.3600000000000003  9.1798692801150494 22.8799999999999990   T   T   T
 11.1300000000000008  6.4259084960805346 22.8799999999999990   T   T   T
  6.3600000000000003  9.1798692801150494  5.5000000000000000   F   F   F
 11.1300000000000008  6.4259084960805346 19.6899999999999977   T   T   T
  6.3600000000000003  9.1798692801150494  8.6899999999999995   F   F   F
 12.7200000000000006  3.6719477120460198 19.6899999999999977   T   T   T
 12.7200000000000006  3.6719477120460198  8.6899999999999995   F   F   F
  7.9500000000000011  6.4259084960805346 19.6899999999999977   T   T   T
  7.9500000000000011  6.4259084960805346 22.8799999999999990   T   T   T
  9.5400000000000009  9.1798692801150494  8.6899999999999995   F   F   F
 14.3100000000000005  0.9179869280115049  8.6899999999999995   F   F   F
  9.5400000000000009  9.1798692801150494  5.5000000000000000   F   F   F
  1.5900000000000001 11.9338300641495643 19.6899999999999977   T   T   T
  7.9500000000000002  0.9179869280115049 22.8799999999999990   T   T   T
  1.5900000000000001 11.9338300641495643  5.5000000000000000   F   F   F
  3.1800000000000002  3.6719477120460198  5.5000000000000000   F   F   F
  3.1800000000000002  3.6719477120460198  8.6899999999999995   F   F   F
  4.7700000000000005  0.9179869280115049 19.6899999999999977   T   T   T
  4.7700000000000005  0.9179869280115049 22.8799999999999990   T   T   T
  4.7700000000000005  0.9179869280115049  5.5000000000000000   F   F   F
  4.7700000000000005  0.9179869280115049  8.6899999999999995   F   F   F
 -4.7700000000000005 11.9338300641495643 19.6899999999999977   T   T   T
 -4.7700000000000005 11.9338300641495643 22.8799999999999990   T   T   T
 -4.7700000000000005 11.9338300641495643  5.5000000000000000   F   F   F
 -4.7700000000000005 11.9338300641495643  8.6899999999999995   F   F   F
 -3.1800000000000006  9.1798692801150494 19.6899999999999977   T   T   T
 -3.1800000000000006  9.1798692801150494 22.8799999999999990   T   T   T
  3.1800000000000002  3.6719477120460198 22.8799999999999990   T   T   T
 -3.1800000000000006  9.1798692801150494  5.5000000000000000   F   F   F
 -1.5900000000000001  6.4259084960805346 19.6899999999999977   T   T   T
 -1.5900000000000001  6.4259084960805346 22.8799999999999990   T   T   T
 -1.5900000000000001  6.4259084960805346  5.5000000000000000   F   F   F
 -1.5900000000000001  6.4259084960805346  8.6899999999999995   F   F   F
  0.0000000000000000  3.6719477120460198 19.6899999999999977   T   T   T
  0.0000000000000000  3.6719477120460198 22.8799999999999990   T   T   T
  0.0000000000000000  3.6719477120460198  5.5000000000000000   F   F   F
  0.0000000000000000  3.6719477120460198  8.6899999999999995   F   F   F
  1.5900000000000001  0.9179869280115049 19.6899999999999977   T   T   T
  1.5900000000000001  0.9179869280115049 22.8799999999999990   T   T   T
  1.5900000000000001  0.9179869280115049  5.5000000000000000   F   F   F
  1.5900000000000001  0.9179869280115049  8.6899999999999995   F   F   F
 -3.1800000000000006  9.1798692801150494  8.6899999999999995   F   F   F
  3.1800000000000002  3.6719477120460198 19.6899999999999977   T   T   T
  1.5900000000000001  6.4259084960805346  8.6899999999999995   F   F   F
  1.5900000000000001  6.4259084960805346  5.5000000000000000   F   F   F
  1.5900000000000001 11.9338300641495643  8.6899999999999995   F   F   F
  3.1799999999999997  9.1798692801150494 19.6899999999999977   T   T   T
  3.1799999999999997  9.1798692801150494 22.8799999999999990   T   T   T
  3.1799999999999997  9.1798692801150494  5.5000000000000000   F   F   F
  3.1799999999999997  9.1798692801150494  8.6899999999999995   F   F   F
  4.7700000000000005  6.4259084960805346 19.6899999999999977   T   T   T
  4.7700000000000005  6.4259084960805346 22.8799999999999990   T   T   T
  4.7700000000000005  6.4259084960805346  5.5000000000000000   F   F   F
  4.7700000000000005  6.4259084960805346  8.6899999999999995   F   F   F
  6.3600000000000003  3.6719477120460198 19.6899999999999977   T   T   T
  6.3600000000000003  3.6719477120460198 22.8799999999999990   T   T   T
  6.3600000000000003  3.6719477120460198  5.5000000000000000   F   F   F
  6.3600000000000003  3.6719477120460198  8.6899999999999995   F   F   F
  7.9500000000000002  0.9179869280115049 19.6899999999999977   T   T   T
  7.9500000000000002 11.9338300641495643 22.8799999999999990   T   T   T
  7.9500000000000002  0.9179869280115049  5.5000000000000000   F   F   F
  7.9500000000000002  0.9179869280115049  8.6899999999999995   F   F   F
 -1.5900000000000001 11.9338300641495643 19.6899999999999977   T   T   T
 -1.5900000000000001 11.9338300641495643 22.8799999999999990   T   T   T
 -1.5900000000000001 11.9338300641495643  5.5000000000000000   F   F   F
 -1.5900000000000001 11.9338300641495643  8.6899999999999995   F   F   F
 -0.0000000000000002  9.1798692801150494 19.6899999999999977   T   T   T
 -0.0000000000000002  9.1798692801150494 22.8799999999999990   T   T   T
 -0.0000000000000002  9.1798692801150494  5.5000000000000000   F   F   F
 -0.0000000000000002  9.1798692801150494  8.6899999999999995   F   F   F
  1.5900000000000001  6.4259084960805346 19.6899999999999977   T   T   T
  1.5900000000000001  6.4259084960805346 22.8799999999999990   T   T   T
  1.5900000000000001 11.9338300641495643 22.8799999999999990   T   T   T
  7.9500000000000002 11.9338300641495643 19.6899999999999977   T   T   T
