 C Cr  H Mo  S                          
   1.00000000000000     
    15.9000000000000004    0.0000000000000000    0.0000000000000000
    -7.9500000000000037   13.7698039201725724    0.0000000000000000
     0.0000000000000000    0.0000000000000000   32.3799999999999955
   C    Cr   H    Mo   S 
    10     1    10    50   100
Direct
  0.0661919900112285  0.0955910807432090  0.0620093543837578
  0.9755453097069263  0.0095374012398710  0.0705679466156976
  0.0504176483259427  0.1492038255173114  0.0308845580100359
  0.9501942658075800  0.0975591867364576  0.0195585423701949
  0.9026580173515019  0.0106553598524250  0.0443142445310047
  0.0016763444675917  0.8681646144965846  0.0004740631136094
  0.9668309034483854  0.9420997893083461  0.9463292900566558
  0.9236270456827398  0.8685108325085653  0.9777388272450132
  0.0696993918924489  0.9857766005872333  0.9495173326072021
  0.0915114777088660  0.9411064849421311  0.9826629442489850
  0.0054410095457389  0.0014346450248866  0.0078122123805910
  0.8255918020282810  0.9572573809592151  0.0441296349947399
  0.8463432526524166  0.8202143860216178  0.9827006785004438
 -0.0060838284050852  0.8199634522324168  0.0258351888246338
  0.9280089040006673  0.9617349844766691  0.9242342686893925
  0.1226470393227591  0.0465164305372479  0.9310797780280091
  0.9636626275660620  0.9541401534285028  0.0932028476671523
  0.1357281302416759  0.1147558171753530  0.0760090734904604
  0.1063356534427703  0.2158488411424803  0.0166184625918643
  0.9160739928535339  0.1200777731096243  0.9963141566219750
  0.1639612434801390  0.9607239362813584  0.9932934202946648
  0.5999318260838908  0.5999637696897137  0.6572069831753224
  0.1995673792936420  0.7995832712577327  0.2169567412863870
  0.1999097684277248  0.5999432400425808  0.6571948684475938
  0.5995708938246973  0.7996090994781120  0.2169395585603392
  0.1995861417819558  0.5995861513509241  0.2169413861372146
  0.5999115610876082  0.7999427920698856  0.6572120730617405
  0.1995322978806093  0.3995320250863282  0.2168636366363136
  0.7996050521382080 -0.0003722521866410  0.2169519212406243
  0.1998962174845701  0.1999273863165330  0.6572160240688276
  0.7999111704018124 -0.0000610006301801  0.6572178447829059
  0.1994577450310877  0.1995456631968616  0.2167743776628830
  0.1998979881430303  0.7999411928387015  0.6572089678006577
  0.1998976597359010  0.3999309334893852  0.6572080099201099
  0.5995220735968274  0.5995632195968040  0.2169288081283660
  0.3995437522873368  0.5995890726643475  0.2169088415444111
  0.3998834806864541 -0.0000609746586689  0.6572091576445176
  0.5999046046153870  0.3999334086806048  0.6571984999569160
  0.3995126682620765  0.1995748610866320  0.2168568387237566
  0.5995444117993692  0.3995848312751096  0.2169186825922061
  0.3998904518207044  0.1999310721971944  0.6572077672541236
  0.3995083394783862  0.3995689132812269  0.2168500880656271
  0.5999020276829307  0.1999414705635306  0.6572004543233650
  0.3998862828504315  0.3999202006080806  0.6572070085178928
  0.5995726651441206  0.1996232257426212  0.2169392272903018
  0.3999026064547470  0.7999370702924627  0.6571966263479859
  0.3999037787850841  0.5999445222338270  0.6571954319522962
  0.5999283193119864 -0.0000585354909991  0.6572087052538904
  0.3995700203844925  0.7996030921733992  0.2169484667234256
  0.5996051596354488 -0.0003807524079594  0.2169554967059264
  0.3995432275988903 -0.0003894776876701  0.2169303250065894
  0.7995961353943075  0.1995958351095597  0.2169350732227912
  0.1998956155885923 -0.0000614857589443  0.6572165199535852
  0.1995031678676310 -0.0004364637064851  0.2169075642211205
 -0.0005239197783454 -0.0003584515683656  0.2168278986100707
  0.7999148238543350  0.7999445495564453  0.6572174295936275
 -0.0000937501782161 -0.0000620160956296  0.6572117431844587
  0.7994276348191659  0.7995166729549024  0.2169747547003798
 -0.0004457110610328  0.1995614403680571  0.2168931692086547
 -0.0001002881424286  0.1999297049496031  0.6572145632842464
  0.7999104372115625  0.5999446186022492  0.6572050309720890
 -0.0004349831789569  0.3995485776797842  0.2169371487363636
 -0.0000960000689613  0.3999205559225810  0.6572045798247427
 -0.0004327428853387  0.5995673427510444  0.2169821964264729
  0.7998922667177737  0.3999333363269779  0.6571950245498756
 -0.0000944540746935  0.5999631915317833  0.6572047282730591
  0.7995514690033881  0.5995900462183170  0.2169669689603119
  0.7995655183094117  0.3995970047444355  0.2169636608583441
 -0.0000998757993004  0.7999436205717134  0.6572151883294568
 -0.0004120616957025  0.7995162263366498  0.2170155671842117
  0.7999065730652681  0.1999349697203715  0.6572062025961604
  0.9327252759784169  0.0663534018875908  0.1686233032727468
  0.7332325064358673  0.2665932899075682  0.6089450011868910
  0.7332346750137514  0.2666119157132038  0.7054541900038689
  0.9332332342835185  0.6666052618948856  0.7054649537453268
  0.9332383864469587  0.6666272508530533  0.6089519442539801
  0.7329352820950669  0.2662928803535787  0.1686990753137957
  0.7329011769115245  0.2662478720446352  0.2652044525589898
  0.9329094755015689  0.4661996823825335  0.2652209183949853
  0.7332560870845025  0.0666024864825445  0.6089555129715379
  0.7332450799848503  0.0666142588238067  0.7054663632241056
  0.9332420457280730  0.0666019131299210  0.7054711037175159
  0.9327122186265603  0.8658955058140632  0.1688200707283877
  0.7329389655014168  0.0662768431331129  0.1686773242333112
  0.9332360621272487  0.0665972220478152  0.6089604471157904
  0.7329446127431967  0.0662908085599732  0.2652069679681863
  0.9328763204889913  0.2662443357018903  0.1686459616088175
  0.9332325853060559  0.2666040647640147  0.7054635775074007
  0.9329009063556941  0.8663802393127825  0.2651855167825968
  0.7328340206045849  0.4662257658369066  0.2652087867902367
  0.7329430318206114  0.4662876448586221  0.1687009566711769
  0.7329293998377925  0.8663047457896618  0.1686619972827773
  0.7332353179275752  0.8666009537794388  0.7054706098266971
  0.7328837937940603  0.8662833878970587  0.2652120286131737
  0.9328988271059909  0.4662562040731910  0.1687117418125745
  0.7332481394068439  0.8666100614683784  0.6089607654389257
  0.7332601111602134  0.6666277292565517  0.6089541616911615
  0.7332492673692390  0.6666028528883992  0.7054656928572735
  0.9332297471568863  0.4666054299704933  0.7054496573756914
  0.7328664879847708  0.6662118048444947  0.1686960082052404
  0.9332463464415629  0.4666125462624572  0.6089498775158567
  0.7327944697384606  0.6661961415862837  0.2652213566667792
  0.9332349013430905  0.2665855023969777  0.6089529245527586
  0.9329505818967263  0.2662180165876021  0.2651836438096822
  0.7332351081315427  0.4666118923541851  0.6089433846663922
  0.7332358053605067  0.4665980747984969  0.7054538092237708
  0.9328704840970677  0.6661987336083103  0.2652535034793245
  0.9329731030340485  0.0662872950891143  0.2651806926325403
  0.9329090567316183  0.6662239849085214  0.1687289940781247
  0.5332570257328637  0.8666135621383437  0.6089514361622888
  0.5332391782985186  0.0666089845846569  0.7054557099276194
  0.5329213773417665  0.8662994352862643  0.1686986392109745
  0.3328859561157330  0.2662482098390960  0.1685552366355323
  0.3327386810280625  0.2661938007448608  0.2650688799120138
  0.3332154275199865  0.0666024386763866  0.6089559370066934
  0.3332330606301238  0.0666067300803365  0.7054671955749174
  0.3328457004854952  0.0661914527378668  0.1686359939125754
  0.3328476300306946  0.0663173897893626  0.2651491685613862
  0.1332289384209321  0.8666112773424237  0.6089582078892326
  0.1332340799448860  0.8665991748604255  0.7054687342277821
  0.1328258337173400  0.8661528234473349  0.1686842621651954
  0.1329622197650793  0.8663288742228391  0.2652168705438396
  0.1332337650745042  0.6666182553625372  0.6089482370900021
  0.1332360882466842  0.6666011809566477  0.7054575837086019
  0.3332361046349205  0.2666006623110765  0.7054659209575616
  0.1328762188011359  0.6662388846967635  0.1687121118442328
  0.1332337748939445  0.4665923742779055  0.6089482717903691
  0.1332369283828424  0.4666126240618836  0.7054560353854972
  0.1328580234554065  0.4662690455031118  0.1686608842138177
  0.1329393909376708  0.4661853091861470  0.2651691221390312
  0.1332281943378193  0.2665889499662908  0.6089580525942083
  0.1332358514049302  0.2666075236068081  0.7054667192185459
  0.1327545771708220  0.2662250882848753  0.1685222858874345
  0.1329346262764480  0.2661890661185235  0.2650974869520654
  0.1332322556880623  0.0666009752202467  0.6089593445514497
  0.1332305245291454  0.0665995373663398  0.7054724313907567
  0.1327847144626116  0.0660810095224822  0.1685650452981168
  0.1328053119299042  0.0663192474401990  0.2650851024450874
  0.1329418084235771  0.6662498469657762  0.2652186429039941
  0.3332166823630747  0.2665851944716345  0.6089552761599772
  0.3328450932640724  0.4661800195725331  0.2651272301972626
  0.3328691716497066  0.4662984961704016  0.1686151452142855
  0.5329118403562263  0.8662655120696267  0.2652063322382193
  0.5332583448562912  0.6666203373421787  0.6089501999444648
  0.5332331993993349  0.6665997352465927  0.7054580609820944
  0.5329133209963943  0.6662993511549009  0.1686739201747865
  0.5328542333729653  0.6662343583099668  0.2651810175986778
  0.5332331432164531  0.4666135031917146  0.6089533462846874
  0.5332441715076919  0.4666071679323655  0.7054533593303436
  0.5329345693055860  0.4662808580415673  0.1686474189104469
  0.5327626846977679  0.4661741988121344  0.2651549741301244
  0.5332234659866508  0.2665963452806642  0.6089476602670894
  0.5332389577866751  0.2666072185126128  0.7054564521398090
  0.5329518754603151  0.2662747028860427  0.1686534321658324
  0.5327872987235398  0.2662373953701272  0.2651604324765451
  0.5332298566612639  0.0665919400463578  0.6089546906637776
  0.9332422459707114  0.8666093194676774  0.7054724428836440
  0.5329337776313398  0.0662742594858910  0.1686967328300175
  0.5328840392362262  0.0662891051467621  0.2651963902738453
  0.3332259339362323  0.8666138530239776  0.6089500358442292
  0.3332351341140923  0.8666010119701129  0.7054588232218829
  0.3328860513877068  0.8662502361596233  0.1686960181746047
  0.3329198956631121  0.8663052309216822  0.2652032139964577
  0.3332436720737352  0.6666123414356923  0.6089396134199350
  0.3332373646264039  0.6666071142706903  0.7054480766262237
  0.3328991492888112  0.6663006251080410  0.1686791157643001
  0.3329226902988621  0.6662389920940187  0.2651940070046381
  0.3332259557050823  0.4665884214978815  0.6089493993677176
  0.3332389924568370  0.4666116283491559  0.7054563711947708
  0.5332312028726153  0.8666050904544454  0.7054588938088927
  0.9332379628667139  0.8666115989368776  0.6089592589594517
 
  0.00000000E+00  0.00000000E+00  0.00000000E+00
  0.00000000E+00  0.00000000E+00  0.00000000E+00
  0.00000000E+00  0.00000000E+00  0.00000000E+00
  0.00000000E+00  0.00000000E+00  0.00000000E+00
  0.00000000E+00  0.00000000E+00  0.00000000E+00
  0.00000000E+00  0.00000000E+00  0.00000000E+00
  0.00000000E+00  0.00000000E+00  0.00000000E+00
  0.00000000E+00  0.00000000E+00  0.00000000E+00
  0.00000000E+00  0.00000000E+00  0.00000000E+00
  0.00000000E+00  0.00000000E+00  0.00000000E+00
  0.00000000E+00  0.00000000E+00  0.00000000E+00
  0.00000000E+00  0.00000000E+00  0.00000000E+00
  0.00000000E+00  0.00000000E+00  0.00000000E+00
  0.00000000E+00  0.00000000E+00  0.00000000E+00
  0.00000000E+00  0.00000000E+00  0.00000000E+00
  0.00000000E+00  0.00000000E+00  0.00000000E+00
  0.00000000E+00  0.00000000E+00  0.00000000E+00
  0.00000000E+00  0.00000000E+00  0.00000000E+00
  0.00000000E+00  0.00000000E+00  0.00000000E+00
  0.00000000E+00  0.00000000E+00  0.00000000E+00
  0.00000000E+00  0.00000000E+00  0.00000000E+00
  0.00000000E+00  0.00000000E+00  0.00000000E+00
  0.00000000E+00  0.00000000E+00  0.00000000E+00
  0.00000000E+00  0.00000000E+00  0.00000000E+00
  0.00000000E+00  0.00000000E+00  0.00000000E+00
  0.00000000E+00  0.00000000E+00  0.00000000E+00
  0.00000000E+00  0.00000000E+00  0.00000000E+00
  0.00000000E+00  0.00000000E+00  0.00000000E+00
  0.00000000E+00  0.00000000E+00  0.00000000E+00
  0.00000000E+00  0.00000000E+00  0.00000000E+00
  0.00000000E+00  0.00000000E+00  0.00000000E+00
  0.00000000E+00  0.00000000E+00  0.00000000E+00
  0.00000000E+00  0.00000000E+00  0.00000000E+00
  0.00000000E+00  0.00000000E+00  0.00000000E+00
  0.00000000E+00  0.00000000E+00  0.00000000E+00
  0.00000000E+00  0.00000000E+00  0.00000000E+00
  0.00000000E+00  0.00000000E+00  0.00000000E+00
  0.00000000E+00  0.00000000E+00  0.00000000E+00
  0.00000000E+00  0.00000000E+00  0.00000000E+00
  0.00000000E+00  0.00000000E+00  0.00000000E+00
  0.00000000E+00  0.00000000E+00  0.00000000E+00
  0.00000000E+00  0.00000000E+00  0.00000000E+00
  0.00000000E+00  0.00000000E+00  0.00000000E+00
  0.00000000E+00  0.00000000E+00  0.00000000E+00
  0.00000000E+00  0.00000000E+00  0.00000000E+00
  0.00000000E+00  0.00000000E+00  0.00000000E+00
  0.00000000E+00  0.00000000E+00  0.00000000E+00
  0.00000000E+00  0.00000000E+00  0.00000000E+00
  0.00000000E+00  0.00000000E+00  0.00000000E+00
  0.00000000E+00  0.00000000E+00  0.00000000E+00
  0.00000000E+00  0.00000000E+00  0.00000000E+00
  0.00000000E+00  0.00000000E+00  0.00000000E+00
  0.00000000E+00  0.00000000E+00  0.00000000E+00
  0.00000000E+00  0.00000000E+00  0.00000000E+00
  0.00000000E+00  0.00000000E+00  0.00000000E+00
  0.00000000E+00  0.00000000E+00  0.00000000E+00
  0.00000000E+00  0.00000000E+00  0.00000000E+00
  0.00000000E+00  0.00000000E+00  0.00000000E+00
  0.00000000E+00  0.00000000E+00  0.00000000E+00
  0.00000000E+00  0.00000000E+00  0.00000000E+00
  0.00000000E+00  0.00000000E+00  0.00000000E+00
  0.00000000E+00  0.00000000E+00  0.00000000E+00
  0.00000000E+00  0.00000000E+00  0.00000000E+00
  0.00000000E+00  0.00000000E+00  0.00000000E+00
  0.00000000E+00  0.00000000E+00  0.00000000E+00
  0.00000000E+00  0.00000000E+00  0.00000000E+00
  0.00000000E+00  0.00000000E+00  0.00000000E+00
  0.00000000E+00  0.00000000E+00  0.00000000E+00
  0.00000000E+00  0.00000000E+00  0.00000000E+00
  0.00000000E+00  0.00000000E+00  0.00000000E+00
  0.00000000E+00  0.00000000E+00  0.00000000E+00
  0.00000000E+00  0.00000000E+00  0.00000000E+00
  0.00000000E+00  0.00000000E+00  0.00000000E+00
  0.00000000E+00  0.00000000E+00  0.00000000E+00
  0.00000000E+00  0.00000000E+00  0.00000000E+00
  0.00000000E+00  0.00000000E+00  0.00000000E+00
  0.00000000E+00  0.00000000E+00  0.00000000E+00
  0.00000000E+00  0.00000000E+00  0.00000000E+00
  0.00000000E+00  0.00000000E+00  0.00000000E+00
  0.00000000E+00  0.00000000E+00  0.00000000E+00
  0.00000000E+00  0.00000000E+00  0.00000000E+00
  0.00000000E+00  0.00000000E+00  0.00000000E+00
  0.00000000E+00  0.00000000E+00  0.00000000E+00
  0.00000000E+00  0.00000000E+00  0.00000000E+00
  0.00000000E+00  0.00000000E+00  0.00000000E+00
  0.00000000E+00  0.00000000E+00  0.00000000E+00
  0.00000000E+00  0.00000000E+00  0.00000000E+00
  0.00000000E+00  0.00000000E+00  0.00000000E+00
  0.00000000E+00  0.00000000E+00  0.00000000E+00
  0.00000000E+00  0.00000000E+00  0.00000000E+00
  0.00000000E+00  0.00000000E+00  0.00000000E+00
  0.00000000E+00  0.00000000E+00  0.00000000E+00
  0.00000000E+00  0.00000000E+00  0.00000000E+00
  0.00000000E+00  0.00000000E+00  0.00000000E+00
  0.00000000E+00  0.00000000E+00  0.00000000E+00
  0.00000000E+00  0.00000000E+00  0.00000000E+00
  0.00000000E+00  0.00000000E+00  0.00000000E+00
  0.00000000E+00  0.00000000E+00  0.00000000E+00
  0.00000000E+00  0.00000000E+00  0.00000000E+00
  0.00000000E+00  0.00000000E+00  0.00000000E+00
  0.00000000E+00  0.00000000E+00  0.00000000E+00
  0.00000000E+00  0.00000000E+00  0.00000000E+00
  0.00000000E+00  0.00000000E+00  0.00000000E+00
  0.00000000E+00  0.00000000E+00  0.00000000E+00
  0.00000000E+00  0.00000000E+00  0.00000000E+00
  0.00000000E+00  0.00000000E+00  0.00000000E+00
  0.00000000E+00  0.00000000E+00  0.00000000E+00
  0.00000000E+00  0.00000000E+00  0.00000000E+00
  0.00000000E+00  0.00000000E+00  0.00000000E+00
  0.00000000E+00  0.00000000E+00  0.00000000E+00
  0.00000000E+00  0.00000000E+00  0.00000000E+00
  0.00000000E+00  0.00000000E+00  0.00000000E+00
  0.00000000E+00  0.00000000E+00  0.00000000E+00
  0.00000000E+00  0.00000000E+00  0.00000000E+00
  0.00000000E+00  0.00000000E+00  0.00000000E+00
  0.00000000E+00  0.00000000E+00  0.00000000E+00
  0.00000000E+00  0.00000000E+00  0.00000000E+00
  0.00000000E+00  0.00000000E+00  0.00000000E+00
  0.00000000E+00  0.00000000E+00  0.00000000E+00
  0.00000000E+00  0.00000000E+00  0.00000000E+00
  0.00000000E+00  0.00000000E+00  0.00000000E+00
  0.00000000E+00  0.00000000E+00  0.00000000E+00
  0.00000000E+00  0.00000000E+00  0.00000000E+00
  0.00000000E+00  0.00000000E+00  0.00000000E+00
  0.00000000E+00  0.00000000E+00  0.00000000E+00
  0.00000000E+00  0.00000000E+00  0.00000000E+00
  0.00000000E+00  0.00000000E+00  0.00000000E+00
  0.00000000E+00  0.00000000E+00  0.00000000E+00
  0.00000000E+00  0.00000000E+00  0.00000000E+00
  0.00000000E+00  0.00000000E+00  0.00000000E+00
  0.00000000E+00  0.00000000E+00  0.00000000E+00
  0.00000000E+00  0.00000000E+00  0.00000000E+00
  0.00000000E+00  0.00000000E+00  0.00000000E+00
  0.00000000E+00  0.00000000E+00  0.00000000E+00
  0.00000000E+00  0.00000000E+00  0.00000000E+00
  0.00000000E+00  0.00000000E+00  0.00000000E+00
  0.00000000E+00  0.00000000E+00  0.00000000E+00
  0.00000000E+00  0.00000000E+00  0.00000000E+00
  0.00000000E+00  0.00000000E+00  0.00000000E+00
  0.00000000E+00  0.00000000E+00  0.00000000E+00
  0.00000000E+00  0.00000000E+00  0.00000000E+00
  0.00000000E+00  0.00000000E+00  0.00000000E+00
  0.00000000E+00  0.00000000E+00  0.00000000E+00
  0.00000000E+00  0.00000000E+00  0.00000000E+00
  0.00000000E+00  0.00000000E+00  0.00000000E+00
  0.00000000E+00  0.00000000E+00  0.00000000E+00
  0.00000000E+00  0.00000000E+00  0.00000000E+00
  0.00000000E+00  0.00000000E+00  0.00000000E+00
  0.00000000E+00  0.00000000E+00  0.00000000E+00
  0.00000000E+00  0.00000000E+00  0.00000000E+00
  0.00000000E+00  0.00000000E+00  0.00000000E+00
  0.00000000E+00  0.00000000E+00  0.00000000E+00
  0.00000000E+00  0.00000000E+00  0.00000000E+00
  0.00000000E+00  0.00000000E+00  0.00000000E+00
  0.00000000E+00  0.00000000E+00  0.00000000E+00
  0.00000000E+00  0.00000000E+00  0.00000000E+00
  0.00000000E+00  0.00000000E+00  0.00000000E+00
  0.00000000E+00  0.00000000E+00  0.00000000E+00
  0.00000000E+00  0.00000000E+00  0.00000000E+00
  0.00000000E+00  0.00000000E+00  0.00000000E+00
  0.00000000E+00  0.00000000E+00  0.00000000E+00
  0.00000000E+00  0.00000000E+00  0.00000000E+00
  0.00000000E+00  0.00000000E+00  0.00000000E+00
  0.00000000E+00  0.00000000E+00  0.00000000E+00
  0.00000000E+00  0.00000000E+00  0.00000000E+00
  0.00000000E+00  0.00000000E+00  0.00000000E+00
  0.00000000E+00  0.00000000E+00  0.00000000E+00
  0.00000000E+00  0.00000000E+00  0.00000000E+00
  0.00000000E+00  0.00000000E+00  0.00000000E+00
  0.00000000E+00  0.00000000E+00  0.00000000E+00
  0.00000000E+00  0.00000000E+00  0.00000000E+00
