 C Cr  H Mo  S 
 1.0000000000000000
    15.9000000000000004    0.0000000000000000    0.0000000000000000
    -7.9500000000000037   13.7698039201725724    0.0000000000000000
     0.0000000000000000    0.0000000000000000   54.3800000000000026
  10   1  10  50 100
Selective dynamics
Cartesian
  4.1959613245969249  4.1412954127262278 25.7872244408351996   T   T   F
  4.2283245888828569  3.6751738784819596 27.1306885307829937   T   T   F
  5.1819234277634507  5.1620681811629741 25.6385159575624542   T   T   F
  5.8427601477434594  5.3321738511554750 26.9075111913943275   T   T   F
  5.2417735288569887  4.4032534442168014 27.8363615220406579   T   T   F
  1.8490015026940818  6.2417486632877770 27.7861673525417672   T   T   F
  3.6459595154230580  7.6020115065756562 28.3603901359672008   T   T   F
  2.7885532311065542  6.5508433263303569 28.8394638833403434   T   T   F
  3.2376465591062829  7.9384254600910147 27.0365835129688072   T   T   F
  2.1398807938504145  7.1063517434840255 26.6773177813216869   T   T   F
  3.8227683650303672  5.8167783617918278 27.1702648414508872   T   T   F
  5.5207810396311299  4.2645479664899888 28.8781082275458587   T   T   F
  2.8188244817558203  6.0995317821446084 29.8280624015985438   T   T   F
  1.0459979208190200  5.5098900550190164 27.8326347338604094   T   T   F
  4.4750817124551903  8.0493315926375075 28.9033016652360928   T   T   F
  3.7299487302399523  8.6575232414320098 26.3845523652662770   T   T   F
  3.5638331666187995  2.9286989948697886 27.5598917572877973   T   T   F
  3.4923817819469329  3.8194507533876010 25.0221129888261551   T   T   F
  5.3878339218164495  5.7183172690930162 24.7268151970883743   T   T   F
  6.6710290630367499  6.0054520789197490 27.1146520200880730   T   T   F
  1.6351436590409651  7.1041702563587048 25.7133160284590581   T   T   F
  4.7700000000000005  8.2618823521035445 40.7850000000000037   T   T   F
 -3.1800000000000002 11.0158431361380593 13.5950000000000006   F   F   F
 -1.5900000000000003  8.2618823521035445 40.7850000000000037   T   T   F
  3.1800000000000006 11.0158431361380593 13.5950000000000006   F   F   F
 -1.5900000000000003  8.2618823521035445 13.5950000000000006   F   F   F
  3.1800000000000006 11.0158431361380593 40.7850000000000037   T   T   F
  0.0000000000000000  5.5079215680690297 13.5950000000000006   F   F   F
 12.7200000000000006  0.0000000000000000 13.5950000000000006   F   F   F
  1.5900000000000001  2.7539607840345148 40.7850000000000037   T   T   F
 12.7200000000000006  0.0000000000000000 40.7850000000000037   T   T   F
  1.5900000000000001  2.7539607840345148 13.5950000000000006   F   F   F
 -3.1800000000000002 11.0158431361380593 40.7850000000000037   T   T   F
  0.0000000000000000  5.5079215680690297 40.7850000000000037   T   T   F
  4.7700000000000005  8.2618823521035445 13.5950000000000006   F   F   F
  1.5899999999999999  8.2618823521035445 13.5950000000000006   F   F   F
  6.3600000000000003  0.0000000000000000 40.7850000000000037   T   T   F
  6.3600000000000012  5.5079215680690297 40.7850000000000037   T   T   F
  4.7700000000000005  2.7539607840345148 13.5950000000000006   F   F   F
  6.3600000000000012  5.5079215680690297 13.5950000000000006   F   F   F
  4.7700000000000005  2.7539607840345148 40.7850000000000037   T   T   F
  3.1800000000000002  5.5079215680690297 13.5950000000000006   F   F   F
  7.9500000000000011  2.7539607840345148 40.7850000000000037   T   T   F
  3.1800000000000002  5.5079215680690297 40.7850000000000037   T   T   F
  7.9500000000000011  2.7539607840345148 13.5950000000000006   F   F   F
  0.0000000000000000 11.0158431361380593 40.7850000000000037   T   T   F
  1.5899999999999999  8.2618823521035445 40.7850000000000037   T   T   F
  9.5400000000000009  0.0000000000000000 40.7850000000000037   T   T   F
  0.0000000000000000 11.0158431361380593 13.5950000000000006   F   F   F
  9.5400000000000009  0.0000000000000000 13.5950000000000006   F   F   F
  6.3600000000000003  0.0000000000000000 13.5950000000000006   F   F   F
 11.1300000000000008  2.7539607840345148 13.5950000000000006   F   F   F
  3.1800000000000002  0.0000000000000000 40.7850000000000037   T   T   F
  3.1800000000000002  0.0000000000000000 13.5950000000000006   F   F   F
  0.0000000000000000  0.0000000000000000 13.5950000000000006   F   F   F
  6.3600000000000003 11.0158431361380593 40.7850000000000037   T   T   F
  0.0000000000000000  0.0000000000000000 40.7850000000000037   T   T   F
  6.3600000000000003 11.0158431361380593 13.5950000000000006   F   F   F
 -1.5900000000000001  2.7539607840345148 13.5950000000000006   F   F   F
 -1.5900000000000001  2.7539607840345148 40.7850000000000037   T   T   F
  7.9500000000000002  8.2618823521035445 40.7850000000000037   T   T   F
 -3.1800000000000002  5.5079215680690297 13.5950000000000006   F   F   F
 -3.1800000000000002  5.5079215680690297 40.7850000000000037   T   T   F
 -4.7700000000000005  8.2618823521035445 13.5950000000000006   F   F   F
  9.5400000000000009  5.5079215680690297 40.7850000000000037   T   T   F
 -4.7700000000000005  8.2618823521035445 40.7850000000000037   T   T   F
  7.9500000000000002  8.2618823521035445 13.5950000000000006   F   F   F
  9.5400000000000009  5.5079215680690297 13.5950000000000006   F   F   F
 -6.3600000000000003 11.0158431361380593 40.7850000000000037   T   T   F
 -6.3600000000000003 11.0158431361380593 13.5950000000000006   F   F   F
 11.1300000000000008  2.7539607840345148 40.7850000000000037   T   T   F
 14.3100000000000005  0.9179869280115049 12.0000000000000000   F   F   F
  9.5400000000000009  3.6719477120460198 39.1899999999999977   T   T   F
  9.5400000000000009  3.6719477120460198 42.3800000000000026   T   T   F
  9.5400000000000009  9.1798692801150494 42.3800000000000026   T   T   F
  9.5400000000000009  9.1798692801150494 39.1899999999999977   T   T   F
  9.5400000000000009  3.6719477120460198 12.0000000000000000   F   F   F
  9.5400000000000009  3.6719477120460198 15.1900000000000013   F   F   F
 11.1300000000000008  6.4259084960805346 15.1900000000000013   F   F   F
 11.1300000000000008  0.9179869280115049 39.1899999999999977   T   T   F
 11.1300000000000008  0.9179869280115049 42.3800000000000026   T   T   F
 14.3100000000000005  0.9179869280115049 42.3800000000000026   T   T   F
  7.9500000000000002 11.9338300641495643 12.0000000000000000   F   F   F
 11.1300000000000008  0.9179869280115049 12.0000000000000000   F   F   F
 14.3100000000000005  0.9179869280115049 39.1899999999999977   T   T   F
 11.1300000000000008  0.9179869280115049 15.1900000000000013   F   F   F
 12.7200000000000006  3.6719477120460198 12.0000000000000000   F   F   F
 12.7200000000000006  3.6719477120460198 42.3800000000000026   T   T   F
  7.9500000000000002 11.9338300641495643 15.1900000000000013   F   F   F
  7.9500000000000011  6.4259084960805346 15.1900000000000013   F   F   F
  7.9500000000000011  6.4259084960805346 12.0000000000000000   F   F   F
  4.7700000000000005 11.9338300641495643 12.0000000000000000   F   F   F
  4.7700000000000005 11.9338300641495643 42.3800000000000026   T   T   F
  4.7700000000000005 11.9338300641495643 15.1900000000000013   F   F   F
 11.1300000000000008  6.4259084960805346 12.0000000000000000   F   F   F
  4.7700000000000005 11.9338300641495643 39.1899999999999977   T   T   F
  6.3600000000000003  9.1798692801150494 39.1899999999999977   T   T   F
  6.3600000000000003  9.1798692801150494 42.3800000000000026   T   T   F
 11.1300000000000008  6.4259084960805346 42.3800000000000026   T   T   F
  6.3600000000000003  9.1798692801150494 12.0000000000000000   F   F   F
 11.1300000000000008  6.4259084960805346 39.1899999999999977   T   T   F
  6.3600000000000003  9.1798692801150494 15.1900000000000013   F   F   F
 12.7200000000000006  3.6719477120460198 39.1899999999999977   T   T   F
 12.7200000000000006  3.6719477120460198 15.1900000000000013   F   F   F
  7.9500000000000011  6.4259084960805346 39.1899999999999977   T   T   F
  7.9500000000000011  6.4259084960805346 42.3800000000000026   T   T   F
  9.5400000000000009  9.1798692801150494 15.1900000000000013   F   F   F
 14.3100000000000005  0.9179869280115049 15.1900000000000013   F   F   F
  9.5400000000000009  9.1798692801150494 12.0000000000000000   F   F   F
  1.5900000000000001 11.9338300641495643 39.1899999999999977   T   T   F
  7.9500000000000002  0.9179869280115049 42.3800000000000026   T   T   F
  1.5900000000000001 11.9338300641495643 12.0000000000000000   F   F   F
  3.1800000000000002  3.6719477120460198 12.0000000000000000   F   F   F
  3.1800000000000002  3.6719477120460198 15.1900000000000013   F   F   F
  4.7700000000000005  0.9179869280115049 39.1899999999999977   T   T   F
  4.7700000000000005  0.9179869280115049 42.3800000000000026   T   T   F
  4.7700000000000005  0.9179869280115049 12.0000000000000000   F   F   F
  4.7700000000000005  0.9179869280115049 15.1900000000000013   F   F   F
 -4.7700000000000005 11.9338300641495643 39.1899999999999977   T   T   F
 -4.7700000000000005 11.9338300641495643 42.3800000000000026   T   T   F
 -4.7700000000000005 11.9338300641495643 12.0000000000000000   F   F   F
 -4.7700000000000005 11.9338300641495643 15.1900000000000013   F   F   F
 -3.1800000000000006  9.1798692801150494 39.1899999999999977   T   T   F
 -3.1800000000000006  9.1798692801150494 42.3800000000000026   T   T   F
  3.1800000000000002  3.6719477120460198 42.3800000000000026   T   T   F
 -3.1800000000000006  9.1798692801150494 12.0000000000000000   F   F   F
 -1.5900000000000001  6.4259084960805346 39.1899999999999977   T   T   F
 -1.5900000000000001  6.4259084960805346 42.3800000000000026   T   T   F
 -1.5900000000000001  6.4259084960805346 12.0000000000000000   F   F   F
 -1.5900000000000001  6.4259084960805346 15.1900000000000013   F   F   F
  0.0000000000000000  3.6719477120460198 39.1899999999999977   T   T   F
  0.0000000000000000  3.6719477120460198 42.3800000000000026   T   T   F
  0.0000000000000000  3.6719477120460198 12.0000000000000000   F   F   F
  0.0000000000000000  3.6719477120460198 15.1900000000000013   F   F   F
  1.5900000000000001  0.9179869280115049 39.1899999999999977   T   T   F
  1.5900000000000001  0.9179869280115049 42.3800000000000026   T   T   F
  1.5900000000000001  0.9179869280115049 12.0000000000000000   F   F   F
  1.5900000000000001  0.9179869280115049 15.1900000000000013   F   F   F
 -3.1800000000000006  9.1798692801150494 15.1900000000000013   F   F   F
  3.1800000000000002  3.6719477120460198 39.1899999999999977   T   T   F
  1.5900000000000001  6.4259084960805346 15.1900000000000013   F   F   F
  1.5900000000000001  6.4259084960805346 12.0000000000000000   F   F   F
  1.5900000000000001 11.9338300641495643 15.1900000000000013   F   F   F
  3.1799999999999997  9.1798692801150494 39.1899999999999977   T   T   F
  3.1799999999999997  9.1798692801150494 42.3800000000000026   T   T   F
  3.1799999999999997  9.1798692801150494 12.0000000000000000   F   F   F
  3.1799999999999997  9.1798692801150494 15.1900000000000013   F   F   F
  4.7700000000000005  6.4259084960805346 39.1899999999999977   T   T   F
  4.7700000000000005  6.4259084960805346 42.3800000000000026   T   T   F
  4.7700000000000005  6.4259084960805346 12.0000000000000000   F   F   F
  4.7700000000000005  6.4259084960805346 15.1900000000000013   F   F   F
  6.3600000000000003  3.6719477120460198 39.1899999999999977   T   T   F
  6.3600000000000003  3.6719477120460198 42.3800000000000026   T   T   F
  6.3600000000000003  3.6719477120460198 12.0000000000000000   F   F   F
  6.3600000000000003  3.6719477120460198 15.1900000000000013   F   F   F
  7.9500000000000002  0.9179869280115049 39.1899999999999977   T   T   F
  7.9500000000000002 11.9338300641495643 42.3800000000000026   T   T   F
  7.9500000000000002  0.9179869280115049 12.0000000000000000   F   F   F
  7.9500000000000002  0.9179869280115049 15.1900000000000013   F   F   F
 -1.5900000000000001 11.9338300641495643 39.1899999999999977   T   T   F
 -1.5900000000000001 11.9338300641495643 42.3800000000000026   T   T   F
 -1.5900000000000001 11.9338300641495643 12.0000000000000000   F   F   F
 -1.5900000000000001 11.9338300641495643 15.1900000000000013   F   F   F
 -0.0000000000000002  9.1798692801150494 39.1899999999999977   T   T   F
 -0.0000000000000002  9.1798692801150494 42.3800000000000026   T   T   F
 -0.0000000000000002  9.1798692801150494 12.0000000000000000   F   F   F
 -0.0000000000000002  9.1798692801150494 15.1900000000000013   F   F   F
  1.5900000000000001  6.4259084960805346 39.1899999999999977   T   T   F
  1.5900000000000001  6.4259084960805346 42.3800000000000026   T   T   F
  1.5900000000000001 11.9338300641495643 42.3800000000000026   T   T   F
  7.9500000000000002 11.9338300641495643 39.1899999999999977   T   T   F
