 C Cr  H Mo  S                          
   1.00000000000000     
    15.9000000000000004    0.0000000000000000    0.0000000000000000
    -7.9500000000000037   13.7698039201725724    0.0000000000000000
     0.0000000000000000    0.0000000000000000   32.3799999999999955
   C    Cr   H    Mo   S 
    10     1    10    50   100
Selective dynamics
Direct
  0.4303252063106229  0.2926631141042757  0.4729290934239216   T   T   F
  0.3486720603235965  0.2684427004361222  0.4473249292805193   T   T   F
  0.4432981065074040  0.3685380843385469  0.5003074772301588   T   T   F
  0.3683551331784576  0.3917883644679860  0.4917500912107968   T   T   F
  0.3096243668758387  0.3292511821106220  0.4585891667433941   T   T   F
  0.5183578860455005  0.4509168339771896  0.3794179189250997   T   T   F
  0.4825880396433361  0.5590001229764502  0.4125568896575444   T   T   F
  0.4485256043350666  0.4836075801448998  0.3818472252847513   T   T   F
  0.5720583286842159  0.5727978281476399  0.4286407027079022   T   T   F
  0.5942039023127221  0.5066303164362207  0.4085592659373916   T   T   F
  0.4534617943452738  0.4222921327630261  0.4384713688327295   T   T   F
  0.2462436697085494  0.3274910369550634  0.4450130067619611   T   T   F
  0.3834797605480799  0.4578694206160639  0.3630772941896723   T   T   F
  0.5152113730121816  0.3956503264366595  0.3586429990718827   T   T   F
  0.4457186177885725  0.5976710165345511  0.4223236640577852   T   T   F
  0.6135250438306178  0.6217510282878910  0.4536641332576536   T   T   F
  0.3226963891531524  0.2153758341246906  0.4224560523750256   T   T   F
  0.4779089950167486  0.2620495852871659  0.4705817438263225   T   T   F
  0.5003638013360850  0.4032885320828389  0.5233480322246251   T   T   F
  0.3565448278586255  0.4446592163745396  0.5081750764008888   T   T   F
  0.6565447084587082  0.4979694815654645  0.4150930580249508   T   T   F
  0.6000461990010625  0.6000538896718174  0.6573502161828273   T   T   F
  0.2000000000000028  0.7999999999999972  0.2191167387276067   F   F   F
  0.1999996319471372  0.5999954524412582  0.6573502161828273   T   T   F
  0.6000000000000014  0.7999999999999972  0.2191167387276067   F   F   F
  0.2000000000000028  0.6000000000000014  0.2191167387276067   F   F   F
  0.6000105446634236  0.8000217368008505  0.6573502161828273   T   T   F
  0.2000000000000028  0.3999999999999986  0.2191167387276067   F   F   F
  0.7999999999999972  0.0000000000000000  0.2191167387276067   F   F   F
  0.2000428445005749  0.2000313800558739  0.6573502161828273   T   T   F
  0.8000120427237116  0.0000126793054094  0.6573502161828273   T   T   F
  0.2000000000000028  0.2000000000000028  0.2191167387276067   F   F   F
  0.1999940351064438  0.8000012467204366  0.6573502161828273   T   T   F
  0.1999972699220297  0.3999701594022388  0.6573502161828273   T   T   F
  0.6000000000000014  0.6000000000000014  0.2191167387276067   F   F   F
  0.3999999999999986  0.6000000000000014  0.2191167387276067   F   F   F
  0.3999782550356873  0.0000192916130748  0.6573502161828273   T   T   F
  0.5999943921132127  0.3999968150884336  0.6573502161828273   T   T   F
  0.3999999999999986  0.2000000000000028  0.2191167387276067   F   F   F
  0.6000000000000014  0.3999999999999986  0.2191167387276067   F   F   F
  0.3999644694530158  0.2000313261216110  0.6573502161828273   T   T   F
  0.3999999999999986  0.3999999999999986  0.2191167387276067   F   F   F
  0.6000031812390337  0.2000225106008741  0.6573502161828273   T   T   F
  0.3999619332353114  0.3999301815427209  0.6573502161828273   T   T   F
  0.6000000000000014  0.2000000000000028  0.2191167387276067   F   F   F
  0.4000027492467743  0.8000006718856131  0.6573502161828273   T   T   F
  0.4000008942961252  0.5999817649106399  0.6573502161828273   T   T   F
  0.6000305623553660  0.0000035718492437  0.6573502161828273   T   T   F
  0.3999999999999986  0.7999999999999972  0.2191167387276067   F   F   F
  0.6000000000000014  0.0000000000000000  0.2191167387276067   F   F   F
  0.3999999999999986  0.0000000000000000  0.2191167387276067   F   F   F
  0.7999999999999972  0.2000000000000028  0.2191167387276067   F   F   F
  0.2000005083972864  0.0000166551900034  0.6573502161828273   T   T   F
  0.2000000000000028  0.0000000000000000  0.2191167387276067   F   F   F
  0.0000000000000000  0.0000000000000000  0.2191167387276067   F   F   F
  0.8000146451132948  0.8000146867567083  0.6573502161828273   T   T   F
  0.0000110189148603  0.0000113128594142  0.6573502161828273   T   T   F
  0.7999999999999972  0.7999999999999972  0.2191167387276067   F   F   F
  0.0000000000000000  0.2000000000000028  0.2191167387276067   F   F   F
  0.0000066241522120  0.2000031550929499  0.6573502161828273   T   T   F
  0.7999995415987667  0.6000153056368166  0.6573502161828273   T   T   F
  0.0000000000000000  0.3999999999999986  0.2191167387276067   F   F   F
 -0.0000099464128175  0.3999708804738543  0.6573502161828273   T   T   F
  0.0000000000000000  0.6000000000000014  0.2191167387276067   F   F   F
  0.7999954714037112  0.3999829876733677  0.6573502161828273   T   T   F
 -0.0000037696217393  0.6000160674139580  0.6573502161828273   T   T   F
  0.7999999999999972  0.6000000000000014  0.2191167387276067   F   F   F
  0.7999999999999972  0.3999999999999986  0.2191167387276067   F   F   F
 -0.0000042256995809  0.7999992201562086  0.6573502161828273   T   T   F
  0.0000000000000000  0.7999999999999972  0.2191167387276067   F   F   F
  0.8000126066483836  0.1999928151406904  0.6573502161828273   T   T   F
  0.9333333333333300  0.0666666666666700  0.1698579369981488   F   F   F
  0.7333289616806721  0.2666511991088392  0.6080914144533693   T   T   F
  0.7333326311631675  0.2666584276473342  0.7066090179122924   T   T   F
  0.9333277965919338  0.6666697128647991  0.7066090179122924   T   T   F
  0.9333359125493699  0.6666767039844543  0.6080914144533693   T   T   F
  0.7333333333333343  0.2666666666666657  0.1698579369981488   F   F   F
  0.7333333333333343  0.2666666666666657  0.2683755404570718   F   F   F
  0.9333333333333371  0.4666666666666686  0.2683755404570718   F   F   F
  0.7333520448417273  0.0666735182161313  0.6080914144533693   T   T   F
  0.7333480213587285  0.0666721053777735  0.7066090179122924   T   T   F
  0.9333360864063760  0.0666725591912332  0.7066090179122924   T   T   F
  0.9333333333333371  0.8666666666666671  0.1698579369981488   F   F   F
  0.7333333333333343  0.0666666666666700  0.1698579369981488   F   F   F
  0.9333566424938377  0.0666836193157369  0.6080914144533693   T   T   F
  0.7333333333333343  0.0666666666666700  0.2683755404570718   F   F   F
  0.9333333333333300  0.2666666666666657  0.1698579369981488   F   F   F
  0.9333346117050110  0.2666603315027868  0.7066090179122924   T   T   F
  0.9333333333333371  0.8666666666666671  0.2683755404570718   F   F   F
  0.7333333333333343  0.4666666666666686  0.2683755404570718   F   F   F
  0.7333333333333343  0.4666666666666686  0.1698579369981488   F   F   F
  0.7333333333333343  0.8666666666666671  0.1698579369981488   F   F   F
  0.7333365077751202  0.8666708427527772  0.7066090179122924   T   T   F
  0.7333333333333343  0.8666666666666671  0.2683755404570718   F   F   F
  0.9333333333333371  0.4666666666666686  0.1698579369981488   F   F   F
  0.7333456731444379  0.8666821977503014  0.6080914144533693   T   T   F
  0.7333596235249789  0.6666938041407503  0.6080914144533693   T   T   F
  0.7333372879629493  0.6666805732302258  0.7066090179122924   T   T   F
  0.9333298037391580  0.4666621598832286  0.7066090179122924   T   T   F
  0.7333333333333343  0.6666666666666643  0.1698579369981488   F   F   F
  0.9333352897075848  0.4666657241517616  0.6080914144533693   T   T   F
  0.7333333333333343  0.6666666666666643  0.2683755404570718   F   F   F
  0.9333444930085185  0.2666526962187339  0.6080914144533693   T   T   F
  0.9333333333333300  0.2666666666666657  0.2683755404570718   F   F   F
  0.7333448303380707  0.4666706004795698  0.6080914144533693   T   T   F
  0.7333239205338380  0.4666603701391285  0.7066090179122924   T   T   F
  0.9333333333333371  0.6666666666666643  0.2683755404570718   F   F   F
  0.9333333333333300  0.0666666666666700  0.2683755404570718   F   F   F
  0.9333333333333371  0.6666666666666643  0.1698579369981488   F   F   F
  0.5333411996742654  0.8666775020886331  0.6080914144533693   T   T   F
  0.5333424445908601  0.0666766485766249  0.7066090179122924   T   T   F
  0.5333333333333314  0.8666666666666671  0.1698579369981488   F   F   F
  0.3333333333333357  0.2666666666666657  0.1698579369981488   F   F   F
  0.3333333333333357  0.2666666666666657  0.2683755404570718   F   F   F
  0.3333198413225681  0.0667159552469608  0.6080914144533693   T   T   F
  0.3333246719630441  0.0666797806663575  0.7066090179122924   T   T   F
  0.3333333333333357  0.0666666666666700  0.1698579369981488   F   F   F
  0.3333333333333357  0.0666666666666700  0.2683755404570718   F   F   F
  0.1333368877893056  0.8666849753458391  0.6080914144533693   T   T   F
  0.1333304975570152  0.8666695403940815  0.7066090179122924   T   T   F
  0.1333333333333329  0.8666666666666671  0.1698579369981488   F   F   F
  0.1333333333333329  0.8666666666666671  0.2683755404570718   F   F   F
  0.1333283615822549  0.6666727021766298  0.6080914144533693   T   T   F
  0.1333295980187958  0.6666686007760245  0.7066090179122924   T   T   F
  0.3333382701516919  0.2666782597326014  0.7066090179122924   T   T   F
  0.1333333333333329  0.6666666666666643  0.1698579369981488   F   F   F
  0.1333311520000311  0.4666456056009503  0.6080914144533693   T   T   F
  0.1333311774216831  0.4666461245434108  0.7066090179122924   T   T   F
  0.1333333333333329  0.4666666666666686  0.1698579369981488   F   F   F
  0.1333333333333329  0.4666666666666686  0.2683755404570718   F   F   F
  0.1333615117104395  0.2666441567898757  0.6080914144533693   T   T   F
  0.1333349580564751  0.2666677856606027  0.7066090179122924   T   T   F
  0.1333333333333329  0.2666666666666657  0.1698579369981488   F   F   F
  0.1333333333333329  0.2666666666666657  0.2683755404570718   F   F   F
  0.1333748012725824  0.0667165416988645  0.6080914144533693   T   T   F
  0.1333408122695904  0.0666820231472662  0.7066090179122924   T   T   F
  0.1333333333333329  0.0666666666666700  0.1698579369981488   F   F   F
  0.1333333333333329  0.0666666666666700  0.2683755404570718   F   F   F
  0.1333333333333329  0.6666666666666643  0.2683755404570718   F   F   F
  0.3333218343134788  0.2666409950183778  0.6080914144533693   T   T   F
  0.3333333333333357  0.4666666666666686  0.2683755404570718   F   F   F
  0.3333333333333357  0.4666666666666686  0.1698579369981488   F   F   F
  0.5333333333333314  0.8666666666666671  0.2683755404570718   F   F   F
  0.5333409687489807  0.6666758565602258  0.6080914144533693   T   T   F
  0.5333496490598101  0.6666761539798161  0.7066090179122924   T   T   F
  0.5333333333333314  0.6666666666666643  0.1698579369981488   F   F   F
  0.5333333333333314  0.6666666666666643  0.2683755404570718   F   F   F
  0.5333838874971015  0.4667554977916792  0.6080914144533693   T   T   F
  0.5333178279230583  0.4666514223241258  0.7066090179122924   T   T   F
  0.5333333333333314  0.4666666666666686  0.1698579369981488   F   F   F
  0.5333333333333314  0.4666666666666686  0.2683755404570718   F   F   F
  0.5332473856864630  0.2666591206569257  0.6080914144533693   T   T   F
  0.5333325277136520  0.2666863408167066  0.7066090179122924   T   T   F
  0.5333333333333314  0.2666666666666657  0.1698579369981488   F   F   F
  0.5333333333333314  0.2666666666666657  0.2683755404570718   F   F   F
  0.5333294937480485  0.0666757247873030  0.6080914144533693   T   T   F
  0.9333361047083459  0.8666678634366237  0.7066090179122924   T   T   F
  0.5333333333333314  0.0666666666666700  0.1698579369981488   F   F   F
  0.5333333333333314  0.0666666666666700  0.2683755404570718   F   F   F
  0.3333279961010123  0.8666853276387337  0.6080914144533693   T   T   F
  0.3333312590033346  0.8666726730908472  0.7066090179122924   T   T   F
  0.3333333333333357  0.8666666666666671  0.1698579369981488   F   F   F
  0.3333333333333357  0.8666666666666671  0.2683755404570718   F   F   F
  0.3333271425540439  0.6666542145965396  0.6080914144533693   T   T   F
  0.3333354058706814  0.6666594891169454  0.7066090179122924   T   T   F
  0.3333333333333357  0.6666666666666643  0.1698579369981488   F   F   F
  0.3333333333333357  0.6666666666666643  0.2683755404570718   F   F   F
  0.3333328627969973  0.4666159891199131  0.6080914144533693   T   T   F
  0.3333330343859116  0.4666418945921251  0.7066090179122924   T   T   F
  0.5333405548462071  0.8666705758736527  0.7066090179122924   T   T   F
  0.9333538834969770  0.8666840421834371  0.6080914144533693   T   T   F
 
  0.00000000E+00  0.00000000E+00  0.00000000E+00
  0.00000000E+00  0.00000000E+00  0.00000000E+00
  0.00000000E+00  0.00000000E+00  0.00000000E+00
  0.00000000E+00  0.00000000E+00  0.00000000E+00
  0.00000000E+00  0.00000000E+00  0.00000000E+00
  0.00000000E+00  0.00000000E+00  0.00000000E+00
  0.00000000E+00  0.00000000E+00  0.00000000E+00
  0.00000000E+00  0.00000000E+00  0.00000000E+00
  0.00000000E+00  0.00000000E+00  0.00000000E+00
  0.00000000E+00  0.00000000E+00  0.00000000E+00
  0.00000000E+00  0.00000000E+00  0.00000000E+00
  0.00000000E+00  0.00000000E+00  0.00000000E+00
  0.00000000E+00  0.00000000E+00  0.00000000E+00
  0.00000000E+00  0.00000000E+00  0.00000000E+00
  0.00000000E+00  0.00000000E+00  0.00000000E+00
  0.00000000E+00  0.00000000E+00  0.00000000E+00
  0.00000000E+00  0.00000000E+00  0.00000000E+00
  0.00000000E+00  0.00000000E+00  0.00000000E+00
  0.00000000E+00  0.00000000E+00  0.00000000E+00
  0.00000000E+00  0.00000000E+00  0.00000000E+00
  0.00000000E+00  0.00000000E+00  0.00000000E+00
  0.00000000E+00  0.00000000E+00  0.00000000E+00
  0.00000000E+00  0.00000000E+00  0.00000000E+00
  0.00000000E+00  0.00000000E+00  0.00000000E+00
  0.00000000E+00  0.00000000E+00  0.00000000E+00
  0.00000000E+00  0.00000000E+00  0.00000000E+00
  0.00000000E+00  0.00000000E+00  0.00000000E+00
  0.00000000E+00  0.00000000E+00  0.00000000E+00
  0.00000000E+00  0.00000000E+00  0.00000000E+00
  0.00000000E+00  0.00000000E+00  0.00000000E+00
  0.00000000E+00  0.00000000E+00  0.00000000E+00
  0.00000000E+00  0.00000000E+00  0.00000000E+00
  0.00000000E+00  0.00000000E+00  0.00000000E+00
  0.00000000E+00  0.00000000E+00  0.00000000E+00
  0.00000000E+00  0.00000000E+00  0.00000000E+00
  0.00000000E+00  0.00000000E+00  0.00000000E+00
  0.00000000E+00  0.00000000E+00  0.00000000E+00
  0.00000000E+00  0.00000000E+00  0.00000000E+00
  0.00000000E+00  0.00000000E+00  0.00000000E+00
  0.00000000E+00  0.00000000E+00  0.00000000E+00
  0.00000000E+00  0.00000000E+00  0.00000000E+00
  0.00000000E+00  0.00000000E+00  0.00000000E+00
  0.00000000E+00  0.00000000E+00  0.00000000E+00
  0.00000000E+00  0.00000000E+00  0.00000000E+00
  0.00000000E+00  0.00000000E+00  0.00000000E+00
  0.00000000E+00  0.00000000E+00  0.00000000E+00
  0.00000000E+00  0.00000000E+00  0.00000000E+00
  0.00000000E+00  0.00000000E+00  0.00000000E+00
  0.00000000E+00  0.00000000E+00  0.00000000E+00
  0.00000000E+00  0.00000000E+00  0.00000000E+00
  0.00000000E+00  0.00000000E+00  0.00000000E+00
  0.00000000E+00  0.00000000E+00  0.00000000E+00
  0.00000000E+00  0.00000000E+00  0.00000000E+00
  0.00000000E+00  0.00000000E+00  0.00000000E+00
  0.00000000E+00  0.00000000E+00  0.00000000E+00
  0.00000000E+00  0.00000000E+00  0.00000000E+00
  0.00000000E+00  0.00000000E+00  0.00000000E+00
  0.00000000E+00  0.00000000E+00  0.00000000E+00
  0.00000000E+00  0.00000000E+00  0.00000000E+00
  0.00000000E+00  0.00000000E+00  0.00000000E+00
  0.00000000E+00  0.00000000E+00  0.00000000E+00
  0.00000000E+00  0.00000000E+00  0.00000000E+00
  0.00000000E+00  0.00000000E+00  0.00000000E+00
  0.00000000E+00  0.00000000E+00  0.00000000E+00
  0.00000000E+00  0.00000000E+00  0.00000000E+00
  0.00000000E+00  0.00000000E+00  0.00000000E+00
  0.00000000E+00  0.00000000E+00  0.00000000E+00
  0.00000000E+00  0.00000000E+00  0.00000000E+00
  0.00000000E+00  0.00000000E+00  0.00000000E+00
  0.00000000E+00  0.00000000E+00  0.00000000E+00
  0.00000000E+00  0.00000000E+00  0.00000000E+00
  0.00000000E+00  0.00000000E+00  0.00000000E+00
  0.00000000E+00  0.00000000E+00  0.00000000E+00
  0.00000000E+00  0.00000000E+00  0.00000000E+00
  0.00000000E+00  0.00000000E+00  0.00000000E+00
  0.00000000E+00  0.00000000E+00  0.00000000E+00
  0.00000000E+00  0.00000000E+00  0.00000000E+00
  0.00000000E+00  0.00000000E+00  0.00000000E+00
  0.00000000E+00  0.00000000E+00  0.00000000E+00
  0.00000000E+00  0.00000000E+00  0.00000000E+00
  0.00000000E+00  0.00000000E+00  0.00000000E+00
  0.00000000E+00  0.00000000E+00  0.00000000E+00
  0.00000000E+00  0.00000000E+00  0.00000000E+00
  0.00000000E+00  0.00000000E+00  0.00000000E+00
  0.00000000E+00  0.00000000E+00  0.00000000E+00
  0.00000000E+00  0.00000000E+00  0.00000000E+00
  0.00000000E+00  0.00000000E+00  0.00000000E+00
  0.00000000E+00  0.00000000E+00  0.00000000E+00
  0.00000000E+00  0.00000000E+00  0.00000000E+00
  0.00000000E+00  0.00000000E+00  0.00000000E+00
  0.00000000E+00  0.00000000E+00  0.00000000E+00
  0.00000000E+00  0.00000000E+00  0.00000000E+00
  0.00000000E+00  0.00000000E+00  0.00000000E+00
  0.00000000E+00  0.00000000E+00  0.00000000E+00
  0.00000000E+00  0.00000000E+00  0.00000000E+00
  0.00000000E+00  0.00000000E+00  0.00000000E+00
  0.00000000E+00  0.00000000E+00  0.00000000E+00
  0.00000000E+00  0.00000000E+00  0.00000000E+00
  0.00000000E+00  0.00000000E+00  0.00000000E+00
  0.00000000E+00  0.00000000E+00  0.00000000E+00
  0.00000000E+00  0.00000000E+00  0.00000000E+00
  0.00000000E+00  0.00000000E+00  0.00000000E+00
  0.00000000E+00  0.00000000E+00  0.00000000E+00
  0.00000000E+00  0.00000000E+00  0.00000000E+00
  0.00000000E+00  0.00000000E+00  0.00000000E+00
  0.00000000E+00  0.00000000E+00  0.00000000E+00
  0.00000000E+00  0.00000000E+00  0.00000000E+00
  0.00000000E+00  0.00000000E+00  0.00000000E+00
  0.00000000E+00  0.00000000E+00  0.00000000E+00
  0.00000000E+00  0.00000000E+00  0.00000000E+00
  0.00000000E+00  0.00000000E+00  0.00000000E+00
  0.00000000E+00  0.00000000E+00  0.00000000E+00
  0.00000000E+00  0.00000000E+00  0.00000000E+00
  0.00000000E+00  0.00000000E+00  0.00000000E+00
  0.00000000E+00  0.00000000E+00  0.00000000E+00
  0.00000000E+00  0.00000000E+00  0.00000000E+00
  0.00000000E+00  0.00000000E+00  0.00000000E+00
  0.00000000E+00  0.00000000E+00  0.00000000E+00
  0.00000000E+00  0.00000000E+00  0.00000000E+00
  0.00000000E+00  0.00000000E+00  0.00000000E+00
  0.00000000E+00  0.00000000E+00  0.00000000E+00
  0.00000000E+00  0.00000000E+00  0.00000000E+00
  0.00000000E+00  0.00000000E+00  0.00000000E+00
  0.00000000E+00  0.00000000E+00  0.00000000E+00
  0.00000000E+00  0.00000000E+00  0.00000000E+00
  0.00000000E+00  0.00000000E+00  0.00000000E+00
  0.00000000E+00  0.00000000E+00  0.00000000E+00
  0.00000000E+00  0.00000000E+00  0.00000000E+00
  0.00000000E+00  0.00000000E+00  0.00000000E+00
  0.00000000E+00  0.00000000E+00  0.00000000E+00
  0.00000000E+00  0.00000000E+00  0.00000000E+00
  0.00000000E+00  0.00000000E+00  0.00000000E+00
  0.00000000E+00  0.00000000E+00  0.00000000E+00
  0.00000000E+00  0.00000000E+00  0.00000000E+00
  0.00000000E+00  0.00000000E+00  0.00000000E+00
  0.00000000E+00  0.00000000E+00  0.00000000E+00
  0.00000000E+00  0.00000000E+00  0.00000000E+00
  0.00000000E+00  0.00000000E+00  0.00000000E+00
  0.00000000E+00  0.00000000E+00  0.00000000E+00
  0.00000000E+00  0.00000000E+00  0.00000000E+00
  0.00000000E+00  0.00000000E+00  0.00000000E+00
  0.00000000E+00  0.00000000E+00  0.00000000E+00
  0.00000000E+00  0.00000000E+00  0.00000000E+00
  0.00000000E+00  0.00000000E+00  0.00000000E+00
  0.00000000E+00  0.00000000E+00  0.00000000E+00
  0.00000000E+00  0.00000000E+00  0.00000000E+00
  0.00000000E+00  0.00000000E+00  0.00000000E+00
  0.00000000E+00  0.00000000E+00  0.00000000E+00
  0.00000000E+00  0.00000000E+00  0.00000000E+00
  0.00000000E+00  0.00000000E+00  0.00000000E+00
  0.00000000E+00  0.00000000E+00  0.00000000E+00
  0.00000000E+00  0.00000000E+00  0.00000000E+00
  0.00000000E+00  0.00000000E+00  0.00000000E+00
  0.00000000E+00  0.00000000E+00  0.00000000E+00
  0.00000000E+00  0.00000000E+00  0.00000000E+00
  0.00000000E+00  0.00000000E+00  0.00000000E+00
  0.00000000E+00  0.00000000E+00  0.00000000E+00
  0.00000000E+00  0.00000000E+00  0.00000000E+00
  0.00000000E+00  0.00000000E+00  0.00000000E+00
  0.00000000E+00  0.00000000E+00  0.00000000E+00
  0.00000000E+00  0.00000000E+00  0.00000000E+00
  0.00000000E+00  0.00000000E+00  0.00000000E+00
  0.00000000E+00  0.00000000E+00  0.00000000E+00
  0.00000000E+00  0.00000000E+00  0.00000000E+00
  0.00000000E+00  0.00000000E+00  0.00000000E+00
  0.00000000E+00  0.00000000E+00  0.00000000E+00
  0.00000000E+00  0.00000000E+00  0.00000000E+00
  0.00000000E+00  0.00000000E+00  0.00000000E+00
  0.00000000E+00  0.00000000E+00  0.00000000E+00
  0.00000000E+00  0.00000000E+00  0.00000000E+00
  0.00000000E+00  0.00000000E+00  0.00000000E+00
