 C Cr  H Mo  S 
 1.0000000000000000
    15.9000000000000004    0.0000000000000000    0.0000000000000000
    -7.9500000000000037   13.7698039201725724    0.0000000000000000
     0.0000000000000000    0.0000000000000000   32.3799999999999955
  10   1  10  50 100
Selective dynamics
Cartesian
  4.5171742192757138  4.0328088169281031 15.3134440450665945   T   T   F
  3.4105885600474766  3.6991391883825013 14.4843812101033027   T   T   F
  4.1195479399554911  5.0778936089769440 16.1999561127126270   T   T   F
  2.7423178740665528  5.3979709597984709 15.9228679534055964   T   T   F
  2.3052850108300360  4.5360529750756919 14.8491172191510312   T   T   F
  4.6565857157199444  6.2072817476666806 12.2855522147947305   T   T   F
  3.2272135761460912  7.6954301362268858 13.3585920871112620   T   T   F
  3.2858622564500468  6.6574597098258694 12.3642131547201508   T   T   F
  4.5406613499024484  7.8851311843720744 13.8793859536817816   T   T   F
  5.4203055608362529  6.9741283206046578 13.2291490310527156   T   T   F
  3.8534747597040124  5.8143647725104275 14.1977029228038223   T   T   F
  1.3110981826360351  4.5101985063299583 14.4095211589523853   T   T   F
  2.4564248713135095  6.3045088751349923 11.7564427858616618   T   T   F
  5.0483322785653790  5.4479325367104598 11.6128603099476226   T   T   F
  2.3343361219878318  8.2293297165632211 13.6748402421911166   T   T   F
  4.8102321429817403  8.5599794054290932 14.6896446348827450   T   T   F
  3.4182586317650960  2.9680469916855508 13.6791269759032428   T   T   F
  5.5160893893206691  3.6080793933855779 15.2374368650962424   T   T   F
  4.7524432911342434  5.5531394368883573 16.9460092834332521   T   T   F
  2.1327022931079416  6.1244379331345380 16.4547089738608534   T   T   F
  6.4812622641940223  6.8571873880500229 13.4407132188478613   T   T   F
  4.7700000000000005  8.2618823521035445 21.2850000000000001   T   T   F
 -3.1800000000000002 11.0158431361380593  7.0949999999999998   F   F   F
 -1.5900000000000003  8.2618823521035445 21.2850000000000001   T   T   F
  3.1800000000000006 11.0158431361380593  7.0949999999999998   F   F   F
 -1.5900000000000003  8.2618823521035445  7.0949999999999998   F   F   F
  3.1800000000000006 11.0158431361380593 21.2850000000000001   T   T   F
  0.0000000000000000  5.5079215680690297  7.0949999999999998   F   F   F
 12.7200000000000006  0.0000000000000000  7.0949999999999998   F   F   F
  1.5900000000000001  2.7539607840345148 21.2850000000000001   T   T   F
 12.7200000000000006  0.0000000000000000 21.2850000000000001   T   T   F
  1.5900000000000001  2.7539607840345148  7.0949999999999998   F   F   F
 -3.1800000000000002 11.0158431361380593 21.2850000000000001   T   T   F
  0.0000000000000000  5.5079215680690297 21.2850000000000001   T   T   F
  4.7700000000000005  8.2618823521035445  7.0949999999999998   F   F   F
  1.5899999999999999  8.2618823521035445  7.0949999999999998   F   F   F
  6.3600000000000003  0.0000000000000000 21.2850000000000001   T   T   F
  6.3600000000000012  5.5079215680690297 21.2850000000000001   T   T   F
  4.7700000000000005  2.7539607840345148  7.0949999999999998   F   F   F
  6.3600000000000012  5.5079215680690297  7.0949999999999998   F   F   F
  4.7700000000000005  2.7539607840345148 21.2850000000000001   T   T   F
  3.1800000000000002  5.5079215680690297  7.0949999999999998   F   F   F
  7.9500000000000011  2.7539607840345148 21.2850000000000001   T   T   F
  3.1800000000000002  5.5079215680690297 21.2850000000000001   T   T   F
  7.9500000000000011  2.7539607840345148  7.0949999999999998   F   F   F
  0.0000000000000000 11.0158431361380593 21.2850000000000001   T   T   F
  1.5899999999999999  8.2618823521035445 21.2850000000000001   T   T   F
  9.5400000000000009  0.0000000000000000 21.2850000000000001   T   T   F
  0.0000000000000000 11.0158431361380593  7.0949999999999998   F   F   F
  9.5400000000000009  0.0000000000000000  7.0949999999999998   F   F   F
  6.3600000000000003  0.0000000000000000  7.0949999999999998   F   F   F
 11.1300000000000008  2.7539607840345148  7.0949999999999998   F   F   F
  3.1800000000000002  0.0000000000000000 21.2850000000000001   T   T   F
  3.1800000000000002  0.0000000000000000  7.0949999999999998   F   F   F
  0.0000000000000000  0.0000000000000000  7.0949999999999998   F   F   F
  6.3600000000000003 11.0158431361380593 21.2850000000000001   T   T   F
  0.0000000000000000  0.0000000000000000 21.2850000000000001   T   T   F
  6.3600000000000003 11.0158431361380593  7.0949999999999998   F   F   F
 -1.5900000000000001  2.7539607840345148  7.0949999999999998   F   F   F
 -1.5900000000000001  2.7539607840345148 21.2850000000000001   T   T   F
  7.9500000000000002  8.2618823521035445 21.2850000000000001   T   T   F
 -3.1800000000000002  5.5079215680690297  7.0949999999999998   F   F   F
 -3.1800000000000002  5.5079215680690297 21.2850000000000001   T   T   F
 -4.7700000000000005  8.2618823521035445  7.0949999999999998   F   F   F
  9.5400000000000009  5.5079215680690297 21.2850000000000001   T   T   F
 -4.7700000000000005  8.2618823521035445 21.2850000000000001   T   T   F
  7.9500000000000002  8.2618823521035445  7.0949999999999998   F   F   F
  9.5400000000000009  5.5079215680690297  7.0949999999999998   F   F   F
 -6.3600000000000003 11.0158431361380593 21.2850000000000001   T   T   F
 -6.3600000000000003 11.0158431361380593  7.0949999999999998   F   F   F
 11.1300000000000008  2.7539607840345148 21.2850000000000001   T   T   F
 14.3100000000000005  0.9179869280115049  5.5000000000000000   F   F   F
  9.5400000000000009  3.6719477120460198 19.6899999999999977   T   T   F
  9.5400000000000009  3.6719477120460198 22.8799999999999990   T   T   F
  9.5400000000000009  9.1798692801150494 22.8799999999999990   T   T   F
  9.5400000000000009  9.1798692801150494 19.6899999999999977   T   T   F
  9.5400000000000009  3.6719477120460198  5.5000000000000000   F   F   F
  9.5400000000000009  3.6719477120460198  8.6899999999999995   F   F   F
 11.1300000000000008  6.4259084960805346  8.6899999999999995   F   F   F
 11.1300000000000008  0.9179869280115049 19.6899999999999977   T   T   F
 11.1300000000000008  0.9179869280115049 22.8799999999999990   T   T   F
 14.3100000000000005  0.9179869280115049 22.8799999999999990   T   T   F
  7.9500000000000002 11.9338300641495643  5.5000000000000000   F   F   F
 11.1300000000000008  0.9179869280115049  5.5000000000000000   F   F   F
 14.3100000000000005  0.9179869280115049 19.6899999999999977   T   T   F
 11.1300000000000008  0.9179869280115049  8.6899999999999995   F   F   F
 12.7200000000000006  3.6719477120460198  5.5000000000000000   F   F   F
 12.7200000000000006  3.6719477120460198 22.8799999999999990   T   T   F
  7.9500000000000002 11.9338300641495643  8.6899999999999995   F   F   F
  7.9500000000000011  6.4259084960805346  8.6899999999999995   F   F   F
  7.9500000000000011  6.4259084960805346  5.5000000000000000   F   F   F
  4.7700000000000005 11.9338300641495643  5.5000000000000000   F   F   F
  4.7700000000000005 11.9338300641495643 22.8799999999999990   T   T   F
  4.7700000000000005 11.9338300641495643  8.6899999999999995   F   F   F
 11.1300000000000008  6.4259084960805346  5.5000000000000000   F   F   F
  4.7700000000000005 11.9338300641495643 19.6899999999999977   T   T   F
  6.3600000000000003  9.1798692801150494 19.6899999999999977   T   T   F
  6.3600000000000003  9.1798692801150494 22.8799999999999990   T   T   F
 11.1300000000000008  6.4259084960805346 22.8799999999999990   T   T   F
  6.3600000000000003  9.1798692801150494  5.5000000000000000   F   F   F
 11.1300000000000008  6.4259084960805346 19.6899999999999977   T   T   F
  6.3600000000000003  9.1798692801150494  8.6899999999999995   F   F   F
 12.7200000000000006  3.6719477120460198 19.6899999999999977   T   T   F
 12.7200000000000006  3.6719477120460198  8.6899999999999995   F   F   F
  7.9500000000000011  6.4259084960805346 19.6899999999999977   T   T   F
  7.9500000000000011  6.4259084960805346 22.8799999999999990   T   T   F
  9.5400000000000009  9.1798692801150494  8.6899999999999995   F   F   F
 14.3100000000000005  0.9179869280115049  8.6899999999999995   F   F   F
  9.5400000000000009  9.1798692801150494  5.5000000000000000   F   F   F
  1.5900000000000001 11.9338300641495643 19.6899999999999977   T   T   F
  7.9500000000000002  0.9179869280115049 22.8799999999999990   T   T   F
  1.5900000000000001 11.9338300641495643  5.5000000000000000   F   F   F
  3.1800000000000002  3.6719477120460198  5.5000000000000000   F   F   F
  3.1800000000000002  3.6719477120460198  8.6899999999999995   F   F   F
  4.7700000000000005  0.9179869280115049 19.6899999999999977   T   T   F
  4.7700000000000005  0.9179869280115049 22.8799999999999990   T   T   F
  4.7700000000000005  0.9179869280115049  5.5000000000000000   F   F   F
  4.7700000000000005  0.9179869280115049  8.6899999999999995   F   F   F
 -4.7700000000000005 11.9338300641495643 19.6899999999999977   T   T   F
 -4.7700000000000005 11.9338300641495643 22.8799999999999990   T   T   F
 -4.7700000000000005 11.9338300641495643  5.5000000000000000   F   F   F
 -4.7700000000000005 11.9338300641495643  8.6899999999999995   F   F   F
 -3.1800000000000006  9.1798692801150494 19.6899999999999977   T   T   F
 -3.1800000000000006  9.1798692801150494 22.8799999999999990   T   T   F
  3.1800000000000002  3.6719477120460198 22.8799999999999990   T   T   F
 -3.1800000000000006  9.1798692801150494  5.5000000000000000   F   F   F
 -1.5900000000000001  6.4259084960805346 19.6899999999999977   T   T   F
 -1.5900000000000001  6.4259084960805346 22.8799999999999990   T   T   F
 -1.5900000000000001  6.4259084960805346  5.5000000000000000   F   F   F
 -1.5900000000000001  6.4259084960805346  8.6899999999999995   F   F   F
  0.0000000000000000  3.6719477120460198 19.6899999999999977   T   T   F
  0.0000000000000000  3.6719477120460198 22.8799999999999990   T   T   F
  0.0000000000000000  3.6719477120460198  5.5000000000000000   F   F   F
  0.0000000000000000  3.6719477120460198  8.6899999999999995   F   F   F
  1.5900000000000001  0.9179869280115049 19.6899999999999977   T   T   F
  1.5900000000000001  0.9179869280115049 22.8799999999999990   T   T   F
  1.5900000000000001  0.9179869280115049  5.5000000000000000   F   F   F
  1.5900000000000001  0.9179869280115049  8.6899999999999995   F   F   F
 -3.1800000000000006  9.1798692801150494  8.6899999999999995   F   F   F
  3.1800000000000002  3.6719477120460198 19.6899999999999977   T   T   F
  1.5900000000000001  6.4259084960805346  8.6899999999999995   F   F   F
  1.5900000000000001  6.4259084960805346  5.5000000000000000   F   F   F
  1.5900000000000001 11.9338300641495643  8.6899999999999995   F   F   F
  3.1799999999999997  9.1798692801150494 19.6899999999999977   T   T   F
  3.1799999999999997  9.1798692801150494 22.8799999999999990   T   T   F
  3.1799999999999997  9.1798692801150494  5.5000000000000000   F   F   F
  3.1799999999999997  9.1798692801150494  8.6899999999999995   F   F   F
  4.7700000000000005  6.4259084960805346 19.6899999999999977   T   T   F
  4.7700000000000005  6.4259084960805346 22.8799999999999990   T   T   F
  4.7700000000000005  6.4259084960805346  5.5000000000000000   F   F   F
  4.7700000000000005  6.4259084960805346  8.6899999999999995   F   F   F
  6.3600000000000003  3.6719477120460198 19.6899999999999977   T   T   F
  6.3600000000000003  3.6719477120460198 22.8799999999999990   T   T   F
  6.3600000000000003  3.6719477120460198  5.5000000000000000   F   F   F
  6.3600000000000003  3.6719477120460198  8.6899999999999995   F   F   F
  7.9500000000000002  0.9179869280115049 19.6899999999999977   T   T   F
  7.9500000000000002 11.9338300641495643 22.8799999999999990   T   T   F
  7.9500000000000002  0.9179869280115049  5.5000000000000000   F   F   F
  7.9500000000000002  0.9179869280115049  8.6899999999999995   F   F   F
 -1.5900000000000001 11.9338300641495643 19.6899999999999977   T   T   F
 -1.5900000000000001 11.9338300641495643 22.8799999999999990   T   T   F
 -1.5900000000000001 11.9338300641495643  5.5000000000000000   F   F   F
 -1.5900000000000001 11.9338300641495643  8.6899999999999995   F   F   F
 -0.0000000000000002  9.1798692801150494 19.6899999999999977   T   T   F
 -0.0000000000000002  9.1798692801150494 22.8799999999999990   T   T   F
 -0.0000000000000002  9.1798692801150494  5.5000000000000000   F   F   F
 -0.0000000000000002  9.1798692801150494  8.6899999999999995   F   F   F
  1.5900000000000001  6.4259084960805346 19.6899999999999977   T   T   F
  1.5900000000000001  6.4259084960805346 22.8799999999999990   T   T   F
  1.5900000000000001 11.9338300641495643 22.8799999999999990   T   T   F
  7.9500000000000002 11.9338300641495643 19.6899999999999977   T   T   F
