 C Co  H Mo  S                          
   1.00000000000000     
     9.5709464550000014    0.0000000000000000    0.0000000000000000
    -6.3806280268000020   11.0515787236000005    0.0000000000000000
     0.0000000000000000    0.0000000000000000   34.8802625070458063
   C    Co   H    Mo   S 
    10     1    10    24    48
Direct
  0.8995409711080926  0.4525931012113119  0.4703654555469361
  0.7316997966800711  0.3740115725247545  0.4623970466955101
  0.9125536362751436  0.5346344244824183  0.5000274548850057
  0.7528534255295914  0.5068038324705529  0.5104207182689680
  0.6410926436342319  0.4074669307123828  0.4872056851455438
  0.7984996470534177  0.5798325698239172  0.3945323224674791
  0.7141973455135107  0.6690654273777557  0.4399249539046078
  0.6596409011678865  0.5756227992907418  0.4115306947337780
  0.8870924551878607  0.7310858974509111  0.4404333819278753
  0.9389321134983031  0.6759588988756405  0.4123111615686145
  0.7940580795895179  0.5510918781917563  0.4530029222544564
  0.5105491597141368  0.3667645598120881  0.4876048071335801
  0.5349025034898216  0.5107643637034887  0.4045221783472206
  0.9646196240432828  0.8047616771415063  0.4595651457420858
  0.6382658582704639  0.6876432167288341  0.4586371754546734
  0.7972469298768672  0.5190702400145168  0.3724889587785292
  0.6820665857750483  0.3039877718607694  0.4405308742438778
  0.9993035414642600  0.4522106334828558  0.4556063871257496
  0.0239119433064450  0.6072103541997496  0.5120373735636267
  0.7225867512893868  0.5546615365003297  0.5316529891492633
  0.0630091991220146  0.7009397383693690  0.4060145026918615
  0.5559804028788348  0.0838904856983614  0.2501846956633584
  0.5558085164257051  0.3338051538335675  0.2502801045993204
  0.4440271359744639  0.4161427764685297  0.7499615944450472
  0.5559747268854757  0.5839044741127539  0.2502574071643916
  0.4440287289339316  0.6661524992757306  0.7499590587524185
  0.5559608521083421  0.8338546868646727  0.2501849712482525
  0.4440350642546328  0.9161564355856682  0.7499606620338354
  0.8893925811356121  0.3338300082023947  0.2502477184787673
  0.7773783158815752  0.1661012069572058  0.7499646518444308
  0.7773771435088712  0.4160959360809020  0.7499604358637426
  0.8892141971715751  0.5840075288078105  0.2503183046790664
  0.7773843604820775  0.6661050452628535  0.7499603374087980
  0.8893188398730772  0.8338694651865706  0.2501792556837784
  0.7773817009830319  0.9161056365870145  0.7499628582123410
  0.1106809414472600  0.9161136095655311  0.7499630508083568
  0.8893135850744917  0.0838976455533623  0.2501616711586948
  0.2225924711884869  0.8339573912019829  0.2502309417818749
  0.4440298815578688  0.1661478166975372  0.7499621323028248
  0.2225479177762772  0.5838790536488226  0.2502559336449727
  0.1106688359870063  0.4161022626657619  0.7499639767423363
  0.2226177192240602  0.3339045414054436  0.2502458410661149
  0.2225667676210705  0.0838793491326773  0.2501836223995747
  0.1106717631251326  0.1661052949519919  0.7499666030117430
  0.1106770069267591  0.6661131426714461  0.7499599304302105
  0.7774747028036009  0.1662325377025816  0.2947144559100538
  0.8891503008295855  0.0835868365126708  0.7945276060391584
  0.7775779956470363  0.1664936855887291  0.2056229084861587
  0.8891703714914911  0.0836050505415141  0.7054197488893973
  0.2224985353133097  0.0836251992975888  0.7054189653390616
  0.1109527435100358  0.1665093605241897  0.2056335918050109
  0.7774215684376162  0.4162727621201736  0.2947877802483712
  0.8891519638700958  0.3335910755504971  0.7945258176558524
  0.1106600070545049  0.6663742632962356  0.2057336156008196
  0.5558374963980852  0.8336470105540496  0.7054164283243876
  0.8891654753933426  0.3335911175215282  0.7054168658990660
  0.2225055851703110  0.0836150095791198  0.7945287346603287
  0.1107284005029319  0.1662859437708633  0.2947085795786141
  0.7774645880684392  0.6666255740626382  0.2948103559245613
  0.8891557579587381  0.5835889155504126  0.7945206467161972
  0.7774611341500073  0.6663004361811766  0.2056731263291931
  0.8891662240121402  0.5835972839528272  0.7054141028921197
  0.7775325519564349  0.9164219276042853  0.2946895755330931
  0.8891558985677138  0.8335880585238439  0.7945234736941180
  0.7774947214942515  0.4164859612917499  0.2057613925956467
  0.4441105462190581  0.9163556715810595  0.2056404104299387
  0.4443099198963829  0.9164493586437236  0.2947140530956722
  0.2224924848688045  0.5836147440264261  0.7054165695379606
  0.2225011786756810  0.5836187928550655  0.7945242738739223
  0.1107665895765036  0.9164334704731518  0.2947353962171148
  0.2225032811783138  0.8336156685479956  0.7945249918060722
  0.1108812486520228  0.9163831851807952  0.2056324190827116
  0.2225068887441624  0.8336318632610429  0.7054170528412774
  0.1109107313459829  0.6665430240003837  0.2948324988610751
  0.7774848061810068  0.9163466980481865  0.2056093120746593
  0.4439980586061326  0.1661754472072992  0.2947326636452258
  0.5558248540374713  0.0836300480498717  0.7945257075487322
  0.4442058316273547  0.1664778961550783  0.2056544079292418
  0.5558377240256643  0.0836429776874470  0.7054171315206982
  0.4441645798495659  0.4164217062677411  0.2948102111848250
  0.5558318118397335  0.3336304763319384  0.7945233615199847
  0.4442632137987859  0.4164231510426848  0.2057096846177575
  0.5558255687128582  0.3336300868219506  0.7054148354978997
  0.2224887561005652  0.3336097983356335  0.7054194719367359
  0.1109027422072058  0.4164735506329994  0.2056928770988689
  0.4442079898983636  0.6664771749329585  0.2947652379563289
  0.5558297268591333  0.5836325825400137  0.7945206226764520
  0.4440560465702484  0.6662906124254282  0.2056779929194091
  0.5558282737673818  0.5836333421603689  0.7054149200641671
  0.2225032446817388  0.3336169087839072  0.7945278898283170
  0.1108491492014688  0.4163601035685841  0.2947691614688838
  0.5558256364857119  0.8336297604569088  0.7945228385959733
  0.8891751613028334  0.8336105764626170  0.7054170647533282
 
  0.00000000E+00  0.00000000E+00  0.00000000E+00
  0.00000000E+00  0.00000000E+00  0.00000000E+00
  0.00000000E+00  0.00000000E+00  0.00000000E+00
  0.00000000E+00  0.00000000E+00  0.00000000E+00
  0.00000000E+00  0.00000000E+00  0.00000000E+00
  0.00000000E+00  0.00000000E+00  0.00000000E+00
  0.00000000E+00  0.00000000E+00  0.00000000E+00
  0.00000000E+00  0.00000000E+00  0.00000000E+00
  0.00000000E+00  0.00000000E+00  0.00000000E+00
  0.00000000E+00  0.00000000E+00  0.00000000E+00
  0.00000000E+00  0.00000000E+00  0.00000000E+00
  0.00000000E+00  0.00000000E+00  0.00000000E+00
  0.00000000E+00  0.00000000E+00  0.00000000E+00
  0.00000000E+00  0.00000000E+00  0.00000000E+00
  0.00000000E+00  0.00000000E+00  0.00000000E+00
  0.00000000E+00  0.00000000E+00  0.00000000E+00
  0.00000000E+00  0.00000000E+00  0.00000000E+00
  0.00000000E+00  0.00000000E+00  0.00000000E+00
  0.00000000E+00  0.00000000E+00  0.00000000E+00
  0.00000000E+00  0.00000000E+00  0.00000000E+00
  0.00000000E+00  0.00000000E+00  0.00000000E+00
  0.00000000E+00  0.00000000E+00  0.00000000E+00
  0.00000000E+00  0.00000000E+00  0.00000000E+00
  0.00000000E+00  0.00000000E+00  0.00000000E+00
  0.00000000E+00  0.00000000E+00  0.00000000E+00
  0.00000000E+00  0.00000000E+00  0.00000000E+00
  0.00000000E+00  0.00000000E+00  0.00000000E+00
  0.00000000E+00  0.00000000E+00  0.00000000E+00
  0.00000000E+00  0.00000000E+00  0.00000000E+00
  0.00000000E+00  0.00000000E+00  0.00000000E+00
  0.00000000E+00  0.00000000E+00  0.00000000E+00
  0.00000000E+00  0.00000000E+00  0.00000000E+00
  0.00000000E+00  0.00000000E+00  0.00000000E+00
  0.00000000E+00  0.00000000E+00  0.00000000E+00
  0.00000000E+00  0.00000000E+00  0.00000000E+00
  0.00000000E+00  0.00000000E+00  0.00000000E+00
  0.00000000E+00  0.00000000E+00  0.00000000E+00
  0.00000000E+00  0.00000000E+00  0.00000000E+00
  0.00000000E+00  0.00000000E+00  0.00000000E+00
  0.00000000E+00  0.00000000E+00  0.00000000E+00
  0.00000000E+00  0.00000000E+00  0.00000000E+00
  0.00000000E+00  0.00000000E+00  0.00000000E+00
  0.00000000E+00  0.00000000E+00  0.00000000E+00
  0.00000000E+00  0.00000000E+00  0.00000000E+00
  0.00000000E+00  0.00000000E+00  0.00000000E+00
  0.00000000E+00  0.00000000E+00  0.00000000E+00
  0.00000000E+00  0.00000000E+00  0.00000000E+00
  0.00000000E+00  0.00000000E+00  0.00000000E+00
  0.00000000E+00  0.00000000E+00  0.00000000E+00
  0.00000000E+00  0.00000000E+00  0.00000000E+00
  0.00000000E+00  0.00000000E+00  0.00000000E+00
  0.00000000E+00  0.00000000E+00  0.00000000E+00
  0.00000000E+00  0.00000000E+00  0.00000000E+00
  0.00000000E+00  0.00000000E+00  0.00000000E+00
  0.00000000E+00  0.00000000E+00  0.00000000E+00
  0.00000000E+00  0.00000000E+00  0.00000000E+00
  0.00000000E+00  0.00000000E+00  0.00000000E+00
  0.00000000E+00  0.00000000E+00  0.00000000E+00
  0.00000000E+00  0.00000000E+00  0.00000000E+00
  0.00000000E+00  0.00000000E+00  0.00000000E+00
  0.00000000E+00  0.00000000E+00  0.00000000E+00
  0.00000000E+00  0.00000000E+00  0.00000000E+00
  0.00000000E+00  0.00000000E+00  0.00000000E+00
  0.00000000E+00  0.00000000E+00  0.00000000E+00
  0.00000000E+00  0.00000000E+00  0.00000000E+00
  0.00000000E+00  0.00000000E+00  0.00000000E+00
  0.00000000E+00  0.00000000E+00  0.00000000E+00
  0.00000000E+00  0.00000000E+00  0.00000000E+00
  0.00000000E+00  0.00000000E+00  0.00000000E+00
  0.00000000E+00  0.00000000E+00  0.00000000E+00
  0.00000000E+00  0.00000000E+00  0.00000000E+00
  0.00000000E+00  0.00000000E+00  0.00000000E+00
  0.00000000E+00  0.00000000E+00  0.00000000E+00
  0.00000000E+00  0.00000000E+00  0.00000000E+00
  0.00000000E+00  0.00000000E+00  0.00000000E+00
  0.00000000E+00  0.00000000E+00  0.00000000E+00
  0.00000000E+00  0.00000000E+00  0.00000000E+00
  0.00000000E+00  0.00000000E+00  0.00000000E+00
  0.00000000E+00  0.00000000E+00  0.00000000E+00
  0.00000000E+00  0.00000000E+00  0.00000000E+00
  0.00000000E+00  0.00000000E+00  0.00000000E+00
  0.00000000E+00  0.00000000E+00  0.00000000E+00
  0.00000000E+00  0.00000000E+00  0.00000000E+00
  0.00000000E+00  0.00000000E+00  0.00000000E+00
  0.00000000E+00  0.00000000E+00  0.00000000E+00
  0.00000000E+00  0.00000000E+00  0.00000000E+00
  0.00000000E+00  0.00000000E+00  0.00000000E+00
  0.00000000E+00  0.00000000E+00  0.00000000E+00
  0.00000000E+00  0.00000000E+00  0.00000000E+00
  0.00000000E+00  0.00000000E+00  0.00000000E+00
  0.00000000E+00  0.00000000E+00  0.00000000E+00
  0.00000000E+00  0.00000000E+00  0.00000000E+00
  0.00000000E+00  0.00000000E+00  0.00000000E+00
