 C Co  H Mo  S                          
   1.00000000000000     
     9.5709464550000014    0.0000000000000000    0.0000000000000000
    -6.3806280268000020   11.0515787236000005    0.0000000000000000
     0.0000000000000000    0.0000000000000000   34.8802625070458063
   C    Co   H    Mo   S 
    10     1    10    24    48
Direct
  0.4147740103084216  0.6630012282395195  0.0939502002888964
  0.2903558679803663  0.6201730859384746  0.0656302824112389
  0.4254749726252719  0.7684099115675793  0.1114042272202527
  0.3046826786598462  0.7889839609409532  0.0947379667525406
  0.2227476961819032  0.6985194327212064  0.0659776560942887
  0.5818932943877654  0.7977391785788176  0.0040296380043564
  0.5533740223603529  0.9583216534500241  0.0254373345762104
  0.4933911276872189  0.8600606947713914  0.9986954645563697
  0.6766828663724689  0.9553163770350543  0.0478426713405341
  0.6949892632570625  0.8564602769348217  0.0344207351530874
  0.4642661888820797  0.7955268882638196  0.0537481818738086
  0.1280743854592472  0.6914790486731927  0.0470780055161629
  0.3961050615806633  0.8356303716598956  0.9782645447128238
  0.7419235669889541  0.0152361021611490  0.0715856068186670
  0.5084741530391813  0.0208832665164205  0.0291535143892638
  0.5628508268286954  0.7178876106504083  0.9884166167467243
  0.2555937422837411  0.5437566080111015  0.0465018832131856
  0.4910687125069993  0.6247670609835957  0.1006045068954244
  0.5124232668661078  0.8244472862739288  0.1330631603604273
  0.2836507831732430  0.8628763203968264  0.1019122325606302
  0.7765990444065666  0.8287980589329355  0.0462945234192451
  0.5543411897373584  0.0823266224271921  0.2411001529182332
  0.5541635468568817  0.3318333688668883  0.2409678584312057
  0.4450001054812308  0.4164873113719619  0.7516903389711266
  0.5542731344067074  0.5815868119678381  0.2411917652868432
  0.4450075029851376  0.6664944998540666  0.7516941780502935
  0.5538643766343871  0.8316611808729059  0.2410004421508069
  0.4450075094420891  0.9164981092495554  0.7516959633620397
  0.8876253192636354  0.3318972211102080  0.2409565339731814
  0.7783329806006982  0.1664801238353472  0.7516858294046371
  0.7783314002052384  0.4164779819839055  0.7516848750437062
  0.8875492320239986  0.5818241970163759  0.2409674851893673
  0.7783363171593142  0.6664846385178882  0.7516893483030045
  0.8872792146073342  0.8316973594917664  0.2408358372664540
  0.7783351787125103  0.9164887391073216  0.7516914087453647
  0.1116759179023515  0.9164893705486370  0.7516959124197266
  0.8873691339776154  0.0818734797094413  0.2408497560892711
  0.2203776050095201  0.8315974326711949  0.2410123201214959
  0.4449993890893764  0.1664905540792659  0.7516913866459297
  0.2205453967409600  0.5816859615033567  0.2411178712098035
  0.1116717294653758  0.4164859271643818  0.7516888047988727
  0.2208657611189980  0.3318649704659690  0.2409465169281336
  0.2207896290951453  0.0818491442985660  0.2408729581621987
  0.1116747426647298  0.1664906220623023  0.7516910925996131
  0.1116761478225189  0.6664886513525772  0.7516938036691797
  0.7761637713230002  0.1645309197847181  0.2855080055351262
  0.8900696743982149  0.0839528323984234  0.7962192539156644
  0.7755731098213781  0.1645271313798768  0.1964008736186349
  0.8900568423744151  0.0839261869165468  0.7071254590209629
  0.2234014047579704  0.0839270849924676  0.7071248657674452
  0.1091237720412330  0.1644759870290150  0.1963557377585560
  0.7758030681445988  0.4144210491921133  0.2854873824181550
  0.8900626515496979  0.3339398928747162  0.7962161303592492
  0.1092022668964930  0.6642719392791019  0.1964317525047755
  0.5567362733558230  0.8339364367945115  0.7071281353626641
  0.8900592903719629  0.3339299244049485  0.7071243409538963
  0.2234138365518997  0.0839469115764304  0.7962216839571471
  0.1089433306110310  0.1642911679195714  0.2853934238169586
  0.7763042079611286  0.6646680414792989  0.2855488502230777
  0.8900599259271919  0.5839318322164497  0.7962179698933406
  0.7753289819206775  0.6640307871982667  0.1964176093075574
  0.8900645889009434  0.5839367210573478  0.7071273741183821
  0.7757436751260949  0.9143879962340907  0.2853901421320840
  0.8900641490331491  0.8339435318252894  0.7962214358299404
  0.7758545224369831  0.4144547324963600  0.1964253084678689
  0.4421847732786771  0.9150736296289571  0.1967343565823178
  0.4422535004512619  0.9144529942697064  0.2855538076694357
  0.2234145227998093  0.5839430979647972  0.7071254491296498
  0.2234043202060887  0.5839302796297812  0.7962211585668995
  0.1087408945463442  0.9144009143777041  0.2854188358207284
  0.2234068357729635  0.8339388518438541  0.7962261614970214
  0.1090564545607795  0.9142236137934485  0.1963420594511089
  0.2234085865534339  0.8339385419613199  0.7071294953824131
  0.1088158372761473  0.6643246308273776  0.2856098857949335
  0.7752376592118496  0.9142394544213501  0.1963076794277090
  0.4420992822793373  0.1645492666420827  0.2855302517101049
  0.5567507170706671  0.0839573002418548  0.7962227828463484
  0.4425808234710698  0.1645306319527910  0.1964020046319366
  0.5567239132671378  0.0839257767754154  0.7071245366991562
  0.4422563847632494  0.4140564534668861  0.2855927945840199
  0.5567455817115053  0.3339408070968983  0.7962187591073395
  0.4425878588259119  0.4145245232081076  0.1964561290582037
  0.5567240438823233  0.3339230230977273  0.7071218411903909
  0.2234017672542127  0.3339285290290567  0.7071213611646395
  0.1091693859369473  0.4145067365568058  0.1964407594501471
  0.4423695252173966  0.6643655302547226  0.2856526388991891
  0.5567378959105372  0.5839372335569599  0.7962212452416401
  0.4421124284095981  0.6634228434113031  0.1968644766507281
  0.5567351071846555  0.5839386664836306  0.7071258158193089
  0.2234066240195697  0.3339402225492971  0.7962184407535347
  0.1089995251163439  0.4141332442300247  0.2855643790162226
  0.5567472814671053  0.8339478486263113  0.7962242659971632
  0.8900632907016289  0.8339427310744344  0.7071300168096091
 
  0.00000000E+00  0.00000000E+00  0.00000000E+00
  0.00000000E+00  0.00000000E+00  0.00000000E+00
  0.00000000E+00  0.00000000E+00  0.00000000E+00
  0.00000000E+00  0.00000000E+00  0.00000000E+00
  0.00000000E+00  0.00000000E+00  0.00000000E+00
  0.00000000E+00  0.00000000E+00  0.00000000E+00
  0.00000000E+00  0.00000000E+00  0.00000000E+00
  0.00000000E+00  0.00000000E+00  0.00000000E+00
  0.00000000E+00  0.00000000E+00  0.00000000E+00
  0.00000000E+00  0.00000000E+00  0.00000000E+00
  0.00000000E+00  0.00000000E+00  0.00000000E+00
  0.00000000E+00  0.00000000E+00  0.00000000E+00
  0.00000000E+00  0.00000000E+00  0.00000000E+00
  0.00000000E+00  0.00000000E+00  0.00000000E+00
  0.00000000E+00  0.00000000E+00  0.00000000E+00
  0.00000000E+00  0.00000000E+00  0.00000000E+00
  0.00000000E+00  0.00000000E+00  0.00000000E+00
  0.00000000E+00  0.00000000E+00  0.00000000E+00
  0.00000000E+00  0.00000000E+00  0.00000000E+00
  0.00000000E+00  0.00000000E+00  0.00000000E+00
  0.00000000E+00  0.00000000E+00  0.00000000E+00
  0.00000000E+00  0.00000000E+00  0.00000000E+00
  0.00000000E+00  0.00000000E+00  0.00000000E+00
  0.00000000E+00  0.00000000E+00  0.00000000E+00
  0.00000000E+00  0.00000000E+00  0.00000000E+00
  0.00000000E+00  0.00000000E+00  0.00000000E+00
  0.00000000E+00  0.00000000E+00  0.00000000E+00
  0.00000000E+00  0.00000000E+00  0.00000000E+00
  0.00000000E+00  0.00000000E+00  0.00000000E+00
  0.00000000E+00  0.00000000E+00  0.00000000E+00
  0.00000000E+00  0.00000000E+00  0.00000000E+00
  0.00000000E+00  0.00000000E+00  0.00000000E+00
  0.00000000E+00  0.00000000E+00  0.00000000E+00
  0.00000000E+00  0.00000000E+00  0.00000000E+00
  0.00000000E+00  0.00000000E+00  0.00000000E+00
  0.00000000E+00  0.00000000E+00  0.00000000E+00
  0.00000000E+00  0.00000000E+00  0.00000000E+00
  0.00000000E+00  0.00000000E+00  0.00000000E+00
  0.00000000E+00  0.00000000E+00  0.00000000E+00
  0.00000000E+00  0.00000000E+00  0.00000000E+00
  0.00000000E+00  0.00000000E+00  0.00000000E+00
  0.00000000E+00  0.00000000E+00  0.00000000E+00
  0.00000000E+00  0.00000000E+00  0.00000000E+00
  0.00000000E+00  0.00000000E+00  0.00000000E+00
  0.00000000E+00  0.00000000E+00  0.00000000E+00
  0.00000000E+00  0.00000000E+00  0.00000000E+00
  0.00000000E+00  0.00000000E+00  0.00000000E+00
  0.00000000E+00  0.00000000E+00  0.00000000E+00
  0.00000000E+00  0.00000000E+00  0.00000000E+00
  0.00000000E+00  0.00000000E+00  0.00000000E+00
  0.00000000E+00  0.00000000E+00  0.00000000E+00
  0.00000000E+00  0.00000000E+00  0.00000000E+00
  0.00000000E+00  0.00000000E+00  0.00000000E+00
  0.00000000E+00  0.00000000E+00  0.00000000E+00
  0.00000000E+00  0.00000000E+00  0.00000000E+00
  0.00000000E+00  0.00000000E+00  0.00000000E+00
  0.00000000E+00  0.00000000E+00  0.00000000E+00
  0.00000000E+00  0.00000000E+00  0.00000000E+00
  0.00000000E+00  0.00000000E+00  0.00000000E+00
  0.00000000E+00  0.00000000E+00  0.00000000E+00
  0.00000000E+00  0.00000000E+00  0.00000000E+00
  0.00000000E+00  0.00000000E+00  0.00000000E+00
  0.00000000E+00  0.00000000E+00  0.00000000E+00
  0.00000000E+00  0.00000000E+00  0.00000000E+00
  0.00000000E+00  0.00000000E+00  0.00000000E+00
  0.00000000E+00  0.00000000E+00  0.00000000E+00
  0.00000000E+00  0.00000000E+00  0.00000000E+00
  0.00000000E+00  0.00000000E+00  0.00000000E+00
  0.00000000E+00  0.00000000E+00  0.00000000E+00
  0.00000000E+00  0.00000000E+00  0.00000000E+00
  0.00000000E+00  0.00000000E+00  0.00000000E+00
  0.00000000E+00  0.00000000E+00  0.00000000E+00
  0.00000000E+00  0.00000000E+00  0.00000000E+00
  0.00000000E+00  0.00000000E+00  0.00000000E+00
  0.00000000E+00  0.00000000E+00  0.00000000E+00
  0.00000000E+00  0.00000000E+00  0.00000000E+00
  0.00000000E+00  0.00000000E+00  0.00000000E+00
  0.00000000E+00  0.00000000E+00  0.00000000E+00
  0.00000000E+00  0.00000000E+00  0.00000000E+00
  0.00000000E+00  0.00000000E+00  0.00000000E+00
  0.00000000E+00  0.00000000E+00  0.00000000E+00
  0.00000000E+00  0.00000000E+00  0.00000000E+00
  0.00000000E+00  0.00000000E+00  0.00000000E+00
  0.00000000E+00  0.00000000E+00  0.00000000E+00
  0.00000000E+00  0.00000000E+00  0.00000000E+00
  0.00000000E+00  0.00000000E+00  0.00000000E+00
  0.00000000E+00  0.00000000E+00  0.00000000E+00
  0.00000000E+00  0.00000000E+00  0.00000000E+00
  0.00000000E+00  0.00000000E+00  0.00000000E+00
  0.00000000E+00  0.00000000E+00  0.00000000E+00
  0.00000000E+00  0.00000000E+00  0.00000000E+00
  0.00000000E+00  0.00000000E+00  0.00000000E+00
  0.00000000E+00  0.00000000E+00  0.00000000E+00
