 C Cr  H Mo  S 
 1.0000000000000000
    15.9000000000000004    0.0000000000000000    0.0000000000000000
    -7.9500000000000037   13.7698039201725724    0.0000000000000000
     0.0000000000000000    0.0000000000000000   32.3799999999999955
  10   1  10  50 100
Selective dynamics
Cartesian
  4.3351019900595853  7.9721303003410089 14.2597896016452825   T   T   F
  3.9743859299382320  7.5078742152591182 15.5549971672407317   T   T   F
  3.2462449997194822  7.7253843803267639 13.3711280056461774   T   T   F
  2.1881420154127502  7.1018195388215446 14.1245037259645940   T   T   F
  2.6489415366239060  6.9659253141356690 15.4868684114281088   T   T   F
  5.3606706836738365  4.3950791958333930 14.5221086404166648   T   T   F
  3.2150089777613822  3.7906362783662062 13.8588669720559068   T   T   F
  4.0853102454811907  3.9106732144723044 14.9980678201697692   T   T   F
  3.9438943966892879  4.1889786964176139 12.7002440145906075   T   T   F
  5.2576875682409545  4.5640662051854184 13.0999502496213918   T   T   F
  3.8462819170663232  5.8242576410462581 14.1760350608265018   T   T   F
  2.0855018230136348  6.5476502125029921 16.3174719435249180   T   T   F
  3.8386014145243896  3.6475702989979908 16.0236589167722840   T   T   F
  6.2491163720441101  4.5708662547060319 15.1240672447052464   T   T   F
  2.1755960462409041  3.4719752396542307 13.8780426288600971   T   T   F
  3.5405362262426037  4.2645292329142093 11.6921755808145438   T   T   F
  4.6145074925854619  7.5183820762193454 16.4342712892644371   T   T   F
  5.3030284787005746  8.3841685242255224 13.9816772031065355   T   T   F
  3.2272849500667089  7.9600272359327136 12.3092458545279744   T   T   F
  1.2073280901789505  6.8251478803977683 13.7454296851401629   T   T   F
  6.0350715213683017  4.9475323002866256 12.4421572297497267   T   T   F
  4.7700000000000005  8.2618823521035445 21.2850000000000001   T   T   F
 -3.1800000000000002 11.0158431361380593  7.0949999999999998   F   F   F
 -1.5900000000000003  8.2618823521035445 21.2850000000000001   T   T   F
  3.1800000000000006 11.0158431361380593  7.0949999999999998   F   F   F
 -1.5900000000000003  8.2618823521035445  7.0949999999999998   F   F   F
  3.1800000000000006 11.0158431361380593 21.2850000000000001   T   T   F
  0.0000000000000000  5.5079215680690297  7.0949999999999998   F   F   F
 12.7200000000000006  0.0000000000000000  7.0949999999999998   F   F   F
  1.5900000000000001  2.7539607840345148 21.2850000000000001   T   T   F
 12.7200000000000006  0.0000000000000000 21.2850000000000001   T   T   F
  1.5900000000000001  2.7539607840345148  7.0949999999999998   F   F   F
 -3.1800000000000002 11.0158431361380593 21.2850000000000001   T   T   F
  0.0000000000000000  5.5079215680690297 21.2850000000000001   T   T   F
  4.7700000000000005  8.2618823521035445  7.0949999999999998   F   F   F
  1.5899999999999999  8.2618823521035445  7.0949999999999998   F   F   F
  6.3600000000000003  0.0000000000000000 21.2850000000000001   T   T   F
  6.3600000000000012  5.5079215680690297 21.2850000000000001   T   T   F
  4.7700000000000005  2.7539607840345148  7.0949999999999998   F   F   F
  6.3600000000000012  5.5079215680690297  7.0949999999999998   F   F   F
  4.7700000000000005  2.7539607840345148 21.2850000000000001   T   T   F
  3.1800000000000002  5.5079215680690297  7.0949999999999998   F   F   F
  7.9500000000000011  2.7539607840345148 21.2850000000000001   T   T   F
  3.1800000000000002  5.5079215680690297 21.2850000000000001   T   T   F
  7.9500000000000011  2.7539607840345148  7.0949999999999998   F   F   F
  0.0000000000000000 11.0158431361380593 21.2850000000000001   T   T   F
  1.5899999999999999  8.2618823521035445 21.2850000000000001   T   T   F
  9.5400000000000009  0.0000000000000000 21.2850000000000001   T   T   F
  0.0000000000000000 11.0158431361380593  7.0949999999999998   F   F   F
  9.5400000000000009  0.0000000000000000  7.0949999999999998   F   F   F
  6.3600000000000003  0.0000000000000000  7.0949999999999998   F   F   F
 11.1300000000000008  2.7539607840345148  7.0949999999999998   F   F   F
  3.1800000000000002  0.0000000000000000 21.2850000000000001   T   T   F
  3.1800000000000002  0.0000000000000000  7.0949999999999998   F   F   F
  0.0000000000000000  0.0000000000000000  7.0949999999999998   F   F   F
  6.3600000000000003 11.0158431361380593 21.2850000000000001   T   T   F
  0.0000000000000000  0.0000000000000000 21.2850000000000001   T   T   F
  6.3600000000000003 11.0158431361380593  7.0949999999999998   F   F   F
 -1.5900000000000001  2.7539607840345148  7.0949999999999998   F   F   F
 -1.5900000000000001  2.7539607840345148 21.2850000000000001   T   T   F
  7.9500000000000002  8.2618823521035445 21.2850000000000001   T   T   F
 -3.1800000000000002  5.5079215680690297  7.0949999999999998   F   F   F
 -3.1800000000000002  5.5079215680690297 21.2850000000000001   T   T   F
 -4.7700000000000005  8.2618823521035445  7.0949999999999998   F   F   F
  9.5400000000000009  5.5079215680690297 21.2850000000000001   T   T   F
 -4.7700000000000005  8.2618823521035445 21.2850000000000001   T   T   F
  7.9500000000000002  8.2618823521035445  7.0949999999999998   F   F   F
  9.5400000000000009  5.5079215680690297  7.0949999999999998   F   F   F
 -6.3600000000000003 11.0158431361380593 21.2850000000000001   T   T   F
 -6.3600000000000003 11.0158431361380593  7.0949999999999998   F   F   F
 11.1300000000000008  2.7539607840345148 21.2850000000000001   T   T   F
 14.3100000000000005  0.9179869280115049  5.5000000000000000   F   F   F
  9.5400000000000009  3.6719477120460198 19.6899999999999977   T   T   F
  9.5400000000000009  3.6719477120460198 22.8799999999999990   T   T   F
  9.5400000000000009  9.1798692801150494 22.8799999999999990   T   T   F
  9.5400000000000009  9.1798692801150494 19.6899999999999977   T   T   F
  9.5400000000000009  3.6719477120460198  5.5000000000000000   F   F   F
  9.5400000000000009  3.6719477120460198  8.6899999999999995   F   F   F
 11.1300000000000008  6.4259084960805346  8.6899999999999995   F   F   F
 11.1300000000000008  0.9179869280115049 19.6899999999999977   T   T   F
 11.1300000000000008  0.9179869280115049 22.8799999999999990   T   T   F
 14.3100000000000005  0.9179869280115049 22.8799999999999990   T   T   F
  7.9500000000000002 11.9338300641495643  5.5000000000000000   F   F   F
 11.1300000000000008  0.9179869280115049  5.5000000000000000   F   F   F
 14.3100000000000005  0.9179869280115049 19.6899999999999977   T   T   F
 11.1300000000000008  0.9179869280115049  8.6899999999999995   F   F   F
 12.7200000000000006  3.6719477120460198  5.5000000000000000   F   F   F
 12.7200000000000006  3.6719477120460198 22.8799999999999990   T   T   F
  7.9500000000000002 11.9338300641495643  8.6899999999999995   F   F   F
  7.9500000000000011  6.4259084960805346  8.6899999999999995   F   F   F
  7.9500000000000011  6.4259084960805346  5.5000000000000000   F   F   F
  4.7700000000000005 11.9338300641495643  5.5000000000000000   F   F   F
  4.7700000000000005 11.9338300641495643 22.8799999999999990   T   T   F
  4.7700000000000005 11.9338300641495643  8.6899999999999995   F   F   F
 11.1300000000000008  6.4259084960805346  5.5000000000000000   F   F   F
  4.7700000000000005 11.9338300641495643 19.6899999999999977   T   T   F
  6.3600000000000003  9.1798692801150494 19.6899999999999977   T   T   F
  6.3600000000000003  9.1798692801150494 22.8799999999999990   T   T   F
 11.1300000000000008  6.4259084960805346 22.8799999999999990   T   T   F
  6.3600000000000003  9.1798692801150494  5.5000000000000000   F   F   F
 11.1300000000000008  6.4259084960805346 19.6899999999999977   T   T   F
  6.3600000000000003  9.1798692801150494  8.6899999999999995   F   F   F
 12.7200000000000006  3.6719477120460198 19.6899999999999977   T   T   F
 12.7200000000000006  3.6719477120460198  8.6899999999999995   F   F   F
  7.9500000000000011  6.4259084960805346 19.6899999999999977   T   T   F
  7.9500000000000011  6.4259084960805346 22.8799999999999990   T   T   F
  9.5400000000000009  9.1798692801150494  8.6899999999999995   F   F   F
 14.3100000000000005  0.9179869280115049  8.6899999999999995   F   F   F
  9.5400000000000009  9.1798692801150494  5.5000000000000000   F   F   F
  1.5900000000000001 11.9338300641495643 19.6899999999999977   T   T   F
  7.9500000000000002  0.9179869280115049 22.8799999999999990   T   T   F
  1.5900000000000001 11.9338300641495643  5.5000000000000000   F   F   F
  3.1800000000000002  3.6719477120460198  5.5000000000000000   F   F   F
  3.1800000000000002  3.6719477120460198  8.6899999999999995   F   F   F
  4.7700000000000005  0.9179869280115049 19.6899999999999977   T   T   F
  4.7700000000000005  0.9179869280115049 22.8799999999999990   T   T   F
  4.7700000000000005  0.9179869280115049  5.5000000000000000   F   F   F
  4.7700000000000005  0.9179869280115049  8.6899999999999995   F   F   F
 -4.7700000000000005 11.9338300641495643 19.6899999999999977   T   T   F
 -4.7700000000000005 11.9338300641495643 22.8799999999999990   T   T   F
 -4.7700000000000005 11.9338300641495643  5.5000000000000000   F   F   F
 -4.7700000000000005 11.9338300641495643  8.6899999999999995   F   F   F
 -3.1800000000000006  9.1798692801150494 19.6899999999999977   T   T   F
 -3.1800000000000006  9.1798692801150494 22.8799999999999990   T   T   F
  3.1800000000000002  3.6719477120460198 22.8799999999999990   T   T   F
 -3.1800000000000006  9.1798692801150494  5.5000000000000000   F   F   F
 -1.5900000000000001  6.4259084960805346 19.6899999999999977   T   T   F
 -1.5900000000000001  6.4259084960805346 22.8799999999999990   T   T   F
 -1.5900000000000001  6.4259084960805346  5.5000000000000000   F   F   F
 -1.5900000000000001  6.4259084960805346  8.6899999999999995   F   F   F
  0.0000000000000000  3.6719477120460198 19.6899999999999977   T   T   F
  0.0000000000000000  3.6719477120460198 22.8799999999999990   T   T   F
  0.0000000000000000  3.6719477120460198  5.5000000000000000   F   F   F
  0.0000000000000000  3.6719477120460198  8.6899999999999995   F   F   F
  1.5900000000000001  0.9179869280115049 19.6899999999999977   T   T   F
  1.5900000000000001  0.9179869280115049 22.8799999999999990   T   T   F
  1.5900000000000001  0.9179869280115049  5.5000000000000000   F   F   F
  1.5900000000000001  0.9179869280115049  8.6899999999999995   F   F   F
 -3.1800000000000006  9.1798692801150494  8.6899999999999995   F   F   F
  3.1800000000000002  3.6719477120460198 19.6899999999999977   T   T   F
  1.5900000000000001  6.4259084960805346  8.6899999999999995   F   F   F
  1.5900000000000001  6.4259084960805346  5.5000000000000000   F   F   F
  1.5900000000000001 11.9338300641495643  8.6899999999999995   F   F   F
  3.1799999999999997  9.1798692801150494 19.6899999999999977   T   T   F
  3.1799999999999997  9.1798692801150494 22.8799999999999990   T   T   F
  3.1799999999999997  9.1798692801150494  5.5000000000000000   F   F   F
  3.1799999999999997  9.1798692801150494  8.6899999999999995   F   F   F
  4.7700000000000005  6.4259084960805346 19.6899999999999977   T   T   F
  4.7700000000000005  6.4259084960805346 22.8799999999999990   T   T   F
  4.7700000000000005  6.4259084960805346  5.5000000000000000   F   F   F
  4.7700000000000005  6.4259084960805346  8.6899999999999995   F   F   F
  6.3600000000000003  3.6719477120460198 19.6899999999999977   T   T   F
  6.3600000000000003  3.6719477120460198 22.8799999999999990   T   T   F
  6.3600000000000003  3.6719477120460198  5.5000000000000000   F   F   F
  6.3600000000000003  3.6719477120460198  8.6899999999999995   F   F   F
  7.9500000000000002  0.9179869280115049 19.6899999999999977   T   T   F
  7.9500000000000002 11.9338300641495643 22.8799999999999990   T   T   F
  7.9500000000000002  0.9179869280115049  5.5000000000000000   F   F   F
  7.9500000000000002  0.9179869280115049  8.6899999999999995   F   F   F
 -1.5900000000000001 11.9338300641495643 19.6899999999999977   T   T   F
 -1.5900000000000001 11.9338300641495643 22.8799999999999990   T   T   F
 -1.5900000000000001 11.9338300641495643  5.5000000000000000   F   F   F
 -1.5900000000000001 11.9338300641495643  8.6899999999999995   F   F   F
 -0.0000000000000002  9.1798692801150494 19.6899999999999977   T   T   F
 -0.0000000000000002  9.1798692801150494 22.8799999999999990   T   T   F
 -0.0000000000000002  9.1798692801150494  5.5000000000000000   F   F   F
 -0.0000000000000002  9.1798692801150494  8.6899999999999995   F   F   F
  1.5900000000000001  6.4259084960805346 19.6899999999999977   T   T   F
  1.5900000000000001  6.4259084960805346 22.8799999999999990   T   T   F
  1.5900000000000001 11.9338300641495643 22.8799999999999990   T   T   F
  7.9500000000000002 11.9338300641495643 19.6899999999999977   T   T   F
