 C Cr  H Mo  S 
 1.0000000000000000
    15.9000000000000004    0.0000000000000000    0.0000000000000000
    -7.9500000000000037   13.7698039201725724    0.0000000000000000
     0.0000000000000000    0.0000000000000000   54.3800000000000026
  10   1  10  50 100
Selective dynamics
Cartesian
  3.7775158886442894  5.4614641956895813 29.3775736793717854   T   T   F
  2.9059118574225655  6.5300387554805797 29.0287653516812902   T   T   F
  5.0955016697725330  5.7918619602057539 28.9417258566098141   T   T   F
  5.0462802469805599  7.0885552626987511 28.3155040558605329   T   T   F
  3.6763950149394278  7.5438216497622550 28.3701661368240430   T   T   F
  2.4580612176788947  4.7931834661860755 25.9529076714923868   T   T   F
  4.1799286593501126  6.1010500047802214 25.0963082681049379   T   T   F
  2.7771330269834151  6.0958308581729987 25.4152893165849356   T   T   F
  4.7144210640117921  4.8213768246774134 25.4266296494821198   T   T   F
  3.6658645595860264  4.0167160291425628 25.9553625426593371   T   T   F
  3.8360410368748523  5.7948325808536332 27.1993273264051325   T   T   F
  3.2991557466320831  8.4934617664976031 27.9984205488414055   T   T   F
  2.0782885399409139  6.9112220089733594 25.2459401419182932   T   T   F
  1.4762998921778809  4.4491546374280375 26.2697354752939845   T   T   F
  4.7416716029332306  6.9401883177339512 24.6930917472546625   T   T   F
  5.7618633525069463  4.5341682254543887 25.3560354768392742   T   T   F
  1.8306152530137778  6.5509852581203933 29.1908994577248464   T   T   F
  3.4759461133841367  4.5231454735070837 29.8386781554150140   T   T   F
  5.9778383545988190  5.1662090277986481 29.0559661245249536   T   T   F
  5.8932322500294365  7.6405580575839558 27.9152472509154101   T   T   F
  3.7739327540104677  3.0008534195375720 26.3300732809953679   T   T   F
  4.7700000000000005  8.2618823521035445 40.7850000000000037   T   T   F
 -3.1800000000000002 11.0158431361380593 13.5950000000000006   F   F   F
 -1.5900000000000003  8.2618823521035445 40.7850000000000037   T   T   F
  3.1800000000000006 11.0158431361380593 13.5950000000000006   F   F   F
 -1.5900000000000003  8.2618823521035445 13.5950000000000006   F   F   F
  3.1800000000000006 11.0158431361380593 40.7850000000000037   T   T   F
  0.0000000000000000  5.5079215680690297 13.5950000000000006   F   F   F
 12.7200000000000006  0.0000000000000000 13.5950000000000006   F   F   F
  1.5900000000000001  2.7539607840345148 40.7850000000000037   T   T   F
 12.7200000000000006  0.0000000000000000 40.7850000000000037   T   T   F
  1.5900000000000001  2.7539607840345148 13.5950000000000006   F   F   F
 -3.1800000000000002 11.0158431361380593 40.7850000000000037   T   T   F
  0.0000000000000000  5.5079215680690297 40.7850000000000037   T   T   F
  4.7700000000000005  8.2618823521035445 13.5950000000000006   F   F   F
  1.5899999999999999  8.2618823521035445 13.5950000000000006   F   F   F
  6.3600000000000003  0.0000000000000000 40.7850000000000037   T   T   F
  6.3600000000000012  5.5079215680690297 40.7850000000000037   T   T   F
  4.7700000000000005  2.7539607840345148 13.5950000000000006   F   F   F
  6.3600000000000012  5.5079215680690297 13.5950000000000006   F   F   F
  4.7700000000000005  2.7539607840345148 40.7850000000000037   T   T   F
  3.1800000000000002  5.5079215680690297 13.5950000000000006   F   F   F
  7.9500000000000011  2.7539607840345148 40.7850000000000037   T   T   F
  3.1800000000000002  5.5079215680690297 40.7850000000000037   T   T   F
  7.9500000000000011  2.7539607840345148 13.5950000000000006   F   F   F
  0.0000000000000000 11.0158431361380593 40.7850000000000037   T   T   F
  1.5899999999999999  8.2618823521035445 40.7850000000000037   T   T   F
  9.5400000000000009  0.0000000000000000 40.7850000000000037   T   T   F
  0.0000000000000000 11.0158431361380593 13.5950000000000006   F   F   F
  9.5400000000000009  0.0000000000000000 13.5950000000000006   F   F   F
  6.3600000000000003  0.0000000000000000 13.5950000000000006   F   F   F
 11.1300000000000008  2.7539607840345148 13.5950000000000006   F   F   F
  3.1800000000000002  0.0000000000000000 40.7850000000000037   T   T   F
  3.1800000000000002  0.0000000000000000 13.5950000000000006   F   F   F
  0.0000000000000000  0.0000000000000000 13.5950000000000006   F   F   F
  6.3600000000000003 11.0158431361380593 40.7850000000000037   T   T   F
  0.0000000000000000  0.0000000000000000 40.7850000000000037   T   T   F
  6.3600000000000003 11.0158431361380593 13.5950000000000006   F   F   F
 -1.5900000000000001  2.7539607840345148 13.5950000000000006   F   F   F
 -1.5900000000000001  2.7539607840345148 40.7850000000000037   T   T   F
  7.9500000000000002  8.2618823521035445 40.7850000000000037   T   T   F
 -3.1800000000000002  5.5079215680690297 13.5950000000000006   F   F   F
 -3.1800000000000002  5.5079215680690297 40.7850000000000037   T   T   F
 -4.7700000000000005  8.2618823521035445 13.5950000000000006   F   F   F
  9.5400000000000009  5.5079215680690297 40.7850000000000037   T   T   F
 -4.7700000000000005  8.2618823521035445 40.7850000000000037   T   T   F
  7.9500000000000002  8.2618823521035445 13.5950000000000006   F   F   F
  9.5400000000000009  5.5079215680690297 13.5950000000000006   F   F   F
 -6.3600000000000003 11.0158431361380593 40.7850000000000037   T   T   F
 -6.3600000000000003 11.0158431361380593 13.5950000000000006   F   F   F
 11.1300000000000008  2.7539607840345148 40.7850000000000037   T   T   F
 14.3100000000000005  0.9179869280115049 12.0000000000000000   F   F   F
  9.5400000000000009  3.6719477120460198 39.1899999999999977   T   T   F
  9.5400000000000009  3.6719477120460198 42.3800000000000026   T   T   F
  9.5400000000000009  9.1798692801150494 42.3800000000000026   T   T   F
  9.5400000000000009  9.1798692801150494 39.1899999999999977   T   T   F
  9.5400000000000009  3.6719477120460198 12.0000000000000000   F   F   F
  9.5400000000000009  3.6719477120460198 15.1900000000000013   F   F   F
 11.1300000000000008  6.4259084960805346 15.1900000000000013   F   F   F
 11.1300000000000008  0.9179869280115049 39.1899999999999977   T   T   F
 11.1300000000000008  0.9179869280115049 42.3800000000000026   T   T   F
 14.3100000000000005  0.9179869280115049 42.3800000000000026   T   T   F
  7.9500000000000002 11.9338300641495643 12.0000000000000000   F   F   F
 11.1300000000000008  0.9179869280115049 12.0000000000000000   F   F   F
 14.3100000000000005  0.9179869280115049 39.1899999999999977   T   T   F
 11.1300000000000008  0.9179869280115049 15.1900000000000013   F   F   F
 12.7200000000000006  3.6719477120460198 12.0000000000000000   F   F   F
 12.7200000000000006  3.6719477120460198 42.3800000000000026   T   T   F
  7.9500000000000002 11.9338300641495643 15.1900000000000013   F   F   F
  7.9500000000000011  6.4259084960805346 15.1900000000000013   F   F   F
  7.9500000000000011  6.4259084960805346 12.0000000000000000   F   F   F
  4.7700000000000005 11.9338300641495643 12.0000000000000000   F   F   F
  4.7700000000000005 11.9338300641495643 42.3800000000000026   T   T   F
  4.7700000000000005 11.9338300641495643 15.1900000000000013   F   F   F
 11.1300000000000008  6.4259084960805346 12.0000000000000000   F   F   F
  4.7700000000000005 11.9338300641495643 39.1899999999999977   T   T   F
  6.3600000000000003  9.1798692801150494 39.1899999999999977   T   T   F
  6.3600000000000003  9.1798692801150494 42.3800000000000026   T   T   F
 11.1300000000000008  6.4259084960805346 42.3800000000000026   T   T   F
  6.3600000000000003  9.1798692801150494 12.0000000000000000   F   F   F
 11.1300000000000008  6.4259084960805346 39.1899999999999977   T   T   F
  6.3600000000000003  9.1798692801150494 15.1900000000000013   F   F   F
 12.7200000000000006  3.6719477120460198 39.1899999999999977   T   T   F
 12.7200000000000006  3.6719477120460198 15.1900000000000013   F   F   F
  7.9500000000000011  6.4259084960805346 39.1899999999999977   T   T   F
  7.9500000000000011  6.4259084960805346 42.3800000000000026   T   T   F
  9.5400000000000009  9.1798692801150494 15.1900000000000013   F   F   F
 14.3100000000000005  0.9179869280115049 15.1900000000000013   F   F   F
  9.5400000000000009  9.1798692801150494 12.0000000000000000   F   F   F
  1.5900000000000001 11.9338300641495643 39.1899999999999977   T   T   F
  7.9500000000000002  0.9179869280115049 42.3800000000000026   T   T   F
  1.5900000000000001 11.9338300641495643 12.0000000000000000   F   F   F
  3.1800000000000002  3.6719477120460198 12.0000000000000000   F   F   F
  3.1800000000000002  3.6719477120460198 15.1900000000000013   F   F   F
  4.7700000000000005  0.9179869280115049 39.1899999999999977   T   T   F
  4.7700000000000005  0.9179869280115049 42.3800000000000026   T   T   F
  4.7700000000000005  0.9179869280115049 12.0000000000000000   F   F   F
  4.7700000000000005  0.9179869280115049 15.1900000000000013   F   F   F
 -4.7700000000000005 11.9338300641495643 39.1899999999999977   T   T   F
 -4.7700000000000005 11.9338300641495643 42.3800000000000026   T   T   F
 -4.7700000000000005 11.9338300641495643 12.0000000000000000   F   F   F
 -4.7700000000000005 11.9338300641495643 15.1900000000000013   F   F   F
 -3.1800000000000006  9.1798692801150494 39.1899999999999977   T   T   F
 -3.1800000000000006  9.1798692801150494 42.3800000000000026   T   T   F
  3.1800000000000002  3.6719477120460198 42.3800000000000026   T   T   F
 -3.1800000000000006  9.1798692801150494 12.0000000000000000   F   F   F
 -1.5900000000000001  6.4259084960805346 39.1899999999999977   T   T   F
 -1.5900000000000001  6.4259084960805346 42.3800000000000026   T   T   F
 -1.5900000000000001  6.4259084960805346 12.0000000000000000   F   F   F
 -1.5900000000000001  6.4259084960805346 15.1900000000000013   F   F   F
  0.0000000000000000  3.6719477120460198 39.1899999999999977   T   T   F
  0.0000000000000000  3.6719477120460198 42.3800000000000026   T   T   F
  0.0000000000000000  3.6719477120460198 12.0000000000000000   F   F   F
  0.0000000000000000  3.6719477120460198 15.1900000000000013   F   F   F
  1.5900000000000001  0.9179869280115049 39.1899999999999977   T   T   F
  1.5900000000000001  0.9179869280115049 42.3800000000000026   T   T   F
  1.5900000000000001  0.9179869280115049 12.0000000000000000   F   F   F
  1.5900000000000001  0.9179869280115049 15.1900000000000013   F   F   F
 -3.1800000000000006  9.1798692801150494 15.1900000000000013   F   F   F
  3.1800000000000002  3.6719477120460198 39.1899999999999977   T   T   F
  1.5900000000000001  6.4259084960805346 15.1900000000000013   F   F   F
  1.5900000000000001  6.4259084960805346 12.0000000000000000   F   F   F
  1.5900000000000001 11.9338300641495643 15.1900000000000013   F   F   F
  3.1799999999999997  9.1798692801150494 39.1899999999999977   T   T   F
  3.1799999999999997  9.1798692801150494 42.3800000000000026   T   T   F
  3.1799999999999997  9.1798692801150494 12.0000000000000000   F   F   F
  3.1799999999999997  9.1798692801150494 15.1900000000000013   F   F   F
  4.7700000000000005  6.4259084960805346 39.1899999999999977   T   T   F
  4.7700000000000005  6.4259084960805346 42.3800000000000026   T   T   F
  4.7700000000000005  6.4259084960805346 12.0000000000000000   F   F   F
  4.7700000000000005  6.4259084960805346 15.1900000000000013   F   F   F
  6.3600000000000003  3.6719477120460198 39.1899999999999977   T   T   F
  6.3600000000000003  3.6719477120460198 42.3800000000000026   T   T   F
  6.3600000000000003  3.6719477120460198 12.0000000000000000   F   F   F
  6.3600000000000003  3.6719477120460198 15.1900000000000013   F   F   F
  7.9500000000000002  0.9179869280115049 39.1899999999999977   T   T   F
  7.9500000000000002 11.9338300641495643 42.3800000000000026   T   T   F
  7.9500000000000002  0.9179869280115049 12.0000000000000000   F   F   F
  7.9500000000000002  0.9179869280115049 15.1900000000000013   F   F   F
 -1.5900000000000001 11.9338300641495643 39.1899999999999977   T   T   F
 -1.5900000000000001 11.9338300641495643 42.3800000000000026   T   T   F
 -1.5900000000000001 11.9338300641495643 12.0000000000000000   F   F   F
 -1.5900000000000001 11.9338300641495643 15.1900000000000013   F   F   F
 -0.0000000000000002  9.1798692801150494 39.1899999999999977   T   T   F
 -0.0000000000000002  9.1798692801150494 42.3800000000000026   T   T   F
 -0.0000000000000002  9.1798692801150494 12.0000000000000000   F   F   F
 -0.0000000000000002  9.1798692801150494 15.1900000000000013   F   F   F
  1.5900000000000001  6.4259084960805346 39.1899999999999977   T   T   F
  1.5900000000000001  6.4259084960805346 42.3800000000000026   T   T   F
  1.5900000000000001 11.9338300641495643 42.3800000000000026   T   T   F
  7.9500000000000002 11.9338300641495643 39.1899999999999977   T   T   F
