 C Cr  H Mo  S                          
   1.00000000000000     
     9.5709464550000014    0.0000000000000000    0.0000000000000000
    -6.3806280268000020   11.0515787236000005    0.0000000000000000
     0.0000000000000000    0.0000000000000000   34.8802625070458063
   C    Cr   H    Mo   S 
    10     1    10    24    48
Direct
  0.0548032000463977  0.6918202712300811  0.0466694153785346
  0.0770301543571560  0.5970563939524844  0.0612323345850516
  0.0068827350478676  0.7403328892791607  0.0774899251657273
  0.9997118616105856  0.6752174769106989  0.1117781316222595
  0.0434791679258705  0.5857155795281500  0.1015606696191610
  0.6597853541650595  0.4035798260281636  0.0405060894190723
  0.6073719640432275  0.4336897226648174  0.1033807570040515
  0.6588165660170419  0.3669634900287405  0.0797500106882631
  0.5764767748663651  0.5097031392151737  0.0791732326685093
  0.6088157319713952  0.4920178641794031  0.0406191676985589
  0.8291394717131302  0.5511009144563934  0.0735483344246469
  0.0519760231860896  0.5224867632171210  0.1210191385408737
  0.6873574777998974  0.2990127070264473  0.0896116775349903
  0.5426059540866932  0.5750851362535676  0.0888125057791924
  0.5968570264072300  0.4289367180704305  0.1344463468896119
  0.6900846587681292  0.3688576185698766  0.0152966883330923
  0.1084588594085588  0.5401813679410544  0.0443230873342563
  0.0644432082219455  0.7183585731606461  0.0167134695360224
  0.9794734611099674  0.8132023562799227  0.0754354198512314
  0.9703060994628807  0.6925904714525233  0.1402796408747682
  0.6008850924998439  0.5400962589260963  0.0157097177928412
  0.5559771013179864  0.0839217552608835  0.2499150482227198
  0.5559908188669946  0.3339177199177459  0.2498988838774583
  0.4440805271694485  0.4161602061355285  0.7499989562431025
  0.5559103810899153  0.5838355333238118  0.2501214273991696
  0.4440817168068714  0.6661631474286143  0.7499995343735179
  0.5559218720219679  0.8338211556501738  0.2500201692215837
  0.4440837832475237  0.9161637624455540  0.7499992788134754
  0.8892680055010707  0.3338609754588405  0.2499624440544993
  0.7774249487502372  0.1661287845871247  0.7499985727376121
  0.7774253773684311  0.4161287556524268  0.7499987186073140
  0.8895121385756805  0.5839134675046832  0.2500271265619648
  0.7774257027322549  0.6661308797550325  0.7499986882665707
  0.8893405655045685  0.8338845636688608  0.2499935740606191
  0.7774257062772665  0.9161303238206011  0.7499991054112645
  0.1107422623548570  0.9161407873390939  0.7499988128488640
  0.8892323732517432  0.0838272596201803  0.2499222255042901
  0.2228107577717963  0.8338833080857760  0.2500917729569203
  0.4440820100352825  0.1661614127466653  0.7499987605108537
  0.2228537235929722  0.5836721423489318  0.2502642830891698
  0.1107407153797201  0.4161383295967838  0.7499988396410320
  0.2222902777978948  0.3335769263223565  0.2500277524764749
  0.2225983194396491  0.0838696487767266  0.2499120825721010
  0.1107391216626667  0.1661375485761017  0.7499985995904238
  0.1107418546863910  0.6661406125260356  0.7499989941378407
  0.7774923614342293  0.1663881871902031  0.2944958041785956
  0.8891276321409497  0.0835890450418559  0.7945712090031903
  0.7775761536281567  0.1664592335985541  0.2053436817217033
  0.8891264284740200  0.0835857031633369  0.7054257068421770
  0.2224635502420964  0.0836047584993388  0.7054262284113911
  0.1107565170294264  0.1663273051979971  0.2053448673610095
  0.7774380546197945  0.4163522391061709  0.2945054901170323
  0.8891265169027555  0.3335871472781749  0.7945709828870765
  0.1120221902296312  0.6662521230462836  0.2058060825532227
  0.5557958833144889  0.8336192661404963  0.7054270746912741
  0.8891276358827377  0.3335861682331466  0.7054259452088912
  0.2224664150317677  0.0836079915137587  0.7945705071350717
  0.1106776200792512  0.1661047056818592  0.2945375022535394
  0.7778072085876984  0.6664665886602942  0.2945958750089463
  0.8891269728061730  0.5835888761186112  0.7945708761137130
  0.7772585014494806  0.6663449090186762  0.2055121268762122
  0.8891280370895539  0.5835874374699879  0.7054263303060229
  0.7776376842997176  0.9164940112990209  0.2945388734224046
  0.8891292100561082  0.8335904061143067  0.7945710205537612
  0.7779563665969528  0.4166793601259846  0.2053477128473630
  0.4441223792624284  0.9162800465231773  0.2054124621892298
  0.4445444454214176  0.9166560176799766  0.2945834448917989
  0.2224631218259978  0.5836052205947572  0.7054271038348782
  0.2224646709915274  0.5836069271695166  0.7945705924493285
  0.1109642543504444  0.9165607485062196  0.2945532956757537
  0.2224664081370057  0.8336090772788192  0.7945707051098173
  0.1109306842880657  0.9161491009879588  0.2053923926754195
  0.2224642605506406  0.8336057476405584  0.7054267934410323
  0.1109231766821700  0.6664077207482229  0.2947227440480466
  0.7773834085062566  0.9162486479141414  0.2053920089811175
  0.4442719113147270  0.1664999159767638  0.2944582506964712
  0.5557978680054676  0.0836212983785394  0.7945707233414533
  0.4442513402646657  0.1664514556097879  0.2053079145964314
  0.5557957863779596  0.0836184926418967  0.7054265086443855
  0.4440727772882054  0.4161357428767584  0.2945746651587435
  0.5557966110784015  0.3336190674574896  0.7945705601253376
  0.4438014529549630  0.4165379850828228  0.2055345831404518
  0.5557960293598515  0.3336187752377556  0.7054265169600320
  0.2224621605981503  0.3336038980695480  0.7054264699871036
  0.1110783176786176  0.4165915372694882  0.2054712335329813
  0.4446898599796171  0.6666010720266281  0.2947284927246228
  0.5557971297339220  0.5836198964584881  0.7945705040586019
  0.4440409447545609  0.6662165298242019  0.2055187298560203
  0.5557951284338449  0.5836194918179836  0.7054270341629254
  0.2224638967546830  0.3336053747715065  0.7945704583878920
  0.1105325691930707  0.4159175553674874  0.2946633176285664
  0.5557979158929968  0.8336220652963257  0.7945708785610168
  0.8891280649204368  0.8335878653058065  0.7054262198424777
 
  0.00000000E+00  0.00000000E+00  0.00000000E+00
  0.00000000E+00  0.00000000E+00  0.00000000E+00
  0.00000000E+00  0.00000000E+00  0.00000000E+00
  0.00000000E+00  0.00000000E+00  0.00000000E+00
  0.00000000E+00  0.00000000E+00  0.00000000E+00
  0.00000000E+00  0.00000000E+00  0.00000000E+00
  0.00000000E+00  0.00000000E+00  0.00000000E+00
  0.00000000E+00  0.00000000E+00  0.00000000E+00
  0.00000000E+00  0.00000000E+00  0.00000000E+00
  0.00000000E+00  0.00000000E+00  0.00000000E+00
  0.00000000E+00  0.00000000E+00  0.00000000E+00
  0.00000000E+00  0.00000000E+00  0.00000000E+00
  0.00000000E+00  0.00000000E+00  0.00000000E+00
  0.00000000E+00  0.00000000E+00  0.00000000E+00
  0.00000000E+00  0.00000000E+00  0.00000000E+00
  0.00000000E+00  0.00000000E+00  0.00000000E+00
  0.00000000E+00  0.00000000E+00  0.00000000E+00
  0.00000000E+00  0.00000000E+00  0.00000000E+00
  0.00000000E+00  0.00000000E+00  0.00000000E+00
  0.00000000E+00  0.00000000E+00  0.00000000E+00
  0.00000000E+00  0.00000000E+00  0.00000000E+00
  0.00000000E+00  0.00000000E+00  0.00000000E+00
  0.00000000E+00  0.00000000E+00  0.00000000E+00
  0.00000000E+00  0.00000000E+00  0.00000000E+00
  0.00000000E+00  0.00000000E+00  0.00000000E+00
  0.00000000E+00  0.00000000E+00  0.00000000E+00
  0.00000000E+00  0.00000000E+00  0.00000000E+00
  0.00000000E+00  0.00000000E+00  0.00000000E+00
  0.00000000E+00  0.00000000E+00  0.00000000E+00
  0.00000000E+00  0.00000000E+00  0.00000000E+00
  0.00000000E+00  0.00000000E+00  0.00000000E+00
  0.00000000E+00  0.00000000E+00  0.00000000E+00
  0.00000000E+00  0.00000000E+00  0.00000000E+00
  0.00000000E+00  0.00000000E+00  0.00000000E+00
  0.00000000E+00  0.00000000E+00  0.00000000E+00
  0.00000000E+00  0.00000000E+00  0.00000000E+00
  0.00000000E+00  0.00000000E+00  0.00000000E+00
  0.00000000E+00  0.00000000E+00  0.00000000E+00
  0.00000000E+00  0.00000000E+00  0.00000000E+00
  0.00000000E+00  0.00000000E+00  0.00000000E+00
  0.00000000E+00  0.00000000E+00  0.00000000E+00
  0.00000000E+00  0.00000000E+00  0.00000000E+00
  0.00000000E+00  0.00000000E+00  0.00000000E+00
  0.00000000E+00  0.00000000E+00  0.00000000E+00
  0.00000000E+00  0.00000000E+00  0.00000000E+00
  0.00000000E+00  0.00000000E+00  0.00000000E+00
  0.00000000E+00  0.00000000E+00  0.00000000E+00
  0.00000000E+00  0.00000000E+00  0.00000000E+00
  0.00000000E+00  0.00000000E+00  0.00000000E+00
  0.00000000E+00  0.00000000E+00  0.00000000E+00
  0.00000000E+00  0.00000000E+00  0.00000000E+00
  0.00000000E+00  0.00000000E+00  0.00000000E+00
  0.00000000E+00  0.00000000E+00  0.00000000E+00
  0.00000000E+00  0.00000000E+00  0.00000000E+00
  0.00000000E+00  0.00000000E+00  0.00000000E+00
  0.00000000E+00  0.00000000E+00  0.00000000E+00
  0.00000000E+00  0.00000000E+00  0.00000000E+00
  0.00000000E+00  0.00000000E+00  0.00000000E+00
  0.00000000E+00  0.00000000E+00  0.00000000E+00
  0.00000000E+00  0.00000000E+00  0.00000000E+00
  0.00000000E+00  0.00000000E+00  0.00000000E+00
  0.00000000E+00  0.00000000E+00  0.00000000E+00
  0.00000000E+00  0.00000000E+00  0.00000000E+00
  0.00000000E+00  0.00000000E+00  0.00000000E+00
  0.00000000E+00  0.00000000E+00  0.00000000E+00
  0.00000000E+00  0.00000000E+00  0.00000000E+00
  0.00000000E+00  0.00000000E+00  0.00000000E+00
  0.00000000E+00  0.00000000E+00  0.00000000E+00
  0.00000000E+00  0.00000000E+00  0.00000000E+00
  0.00000000E+00  0.00000000E+00  0.00000000E+00
  0.00000000E+00  0.00000000E+00  0.00000000E+00
  0.00000000E+00  0.00000000E+00  0.00000000E+00
  0.00000000E+00  0.00000000E+00  0.00000000E+00
  0.00000000E+00  0.00000000E+00  0.00000000E+00
  0.00000000E+00  0.00000000E+00  0.00000000E+00
  0.00000000E+00  0.00000000E+00  0.00000000E+00
  0.00000000E+00  0.00000000E+00  0.00000000E+00
  0.00000000E+00  0.00000000E+00  0.00000000E+00
  0.00000000E+00  0.00000000E+00  0.00000000E+00
  0.00000000E+00  0.00000000E+00  0.00000000E+00
  0.00000000E+00  0.00000000E+00  0.00000000E+00
  0.00000000E+00  0.00000000E+00  0.00000000E+00
  0.00000000E+00  0.00000000E+00  0.00000000E+00
  0.00000000E+00  0.00000000E+00  0.00000000E+00
  0.00000000E+00  0.00000000E+00  0.00000000E+00
  0.00000000E+00  0.00000000E+00  0.00000000E+00
  0.00000000E+00  0.00000000E+00  0.00000000E+00
  0.00000000E+00  0.00000000E+00  0.00000000E+00
  0.00000000E+00  0.00000000E+00  0.00000000E+00
  0.00000000E+00  0.00000000E+00  0.00000000E+00
  0.00000000E+00  0.00000000E+00  0.00000000E+00
  0.00000000E+00  0.00000000E+00  0.00000000E+00
  0.00000000E+00  0.00000000E+00  0.00000000E+00
