 C Cr  H Mo  S 
 1.0000000000000000
    15.9000000000000004    0.0000000000000000    0.0000000000000000
    -7.9500000000000037   13.7698039201725724    0.0000000000000000
     0.0000000000000000    0.0000000000000000   54.3800000000000026
  10   1  10  50 100
Cartesian
  5.9541082644363126 11.9798086830022630 53.6481603351780549
  6.1754054593630592 10.6638143082100569 53.1558202255246357
  6.4272688496658459 12.0454432165766363  0.6127880514057051
  6.9561377903466592 10.7518018177534422  0.9631872348514721
  6.7940297658435238  9.8921457281834684 54.1935988862212028
  2.9442147911865555  9.9310124291644026  0.0798697768080229
  4.0131961779741827  9.2346583783203862  2.0244712110150633
  3.6691784843767916  8.8375351647322802  0.6852338479277077
  3.5037495406891219 10.5482398876515830  2.2420155412388194
  2.8511683059439452 10.9821599893887623  1.0535883080693802
  4.9169952063912703 10.5166145088102692  0.5498686330594043
  7.1041023396604235  8.8525996065879458 54.1193058240079878
  3.8828784911419971  7.8749722687666184  0.2272704571940719
  2.5176296790519972  9.9465563480909829 53.4596825337292856
  4.5809546355518753  8.6458985595041238  2.7409235926953071
  3.6537753038843048 11.1461107969528950  3.1390385680311477
  5.8803996534416259 10.2944590542172048 52.1762604863616843
  5.4487277173660971 12.7800556746235756 53.1113186950086344
  6.3847374739465126 12.9191455796493937  1.2591979205086414
  7.4297090116042606 10.4856965849232679  1.9050782022099240
  2.3941663955218986 11.9579266628314134  0.9016265808706458
  4.7700000000000005  8.2618823521035445 40.7850000000000037
 -3.1800000000000002 11.0158431361380593 13.5950000000000006
 -1.5900000000000003  8.2618823521035445 40.7850000000000037
  3.1800000000000006 11.0158431361380593 13.5950000000000006
 -1.5900000000000003  8.2618823521035445 13.5950000000000006
  3.1800000000000006 11.0158431361380593 40.7850000000000037
  0.0000000000000000  5.5079215680690297 13.5950000000000006
 12.7200000000000006  0.0000000000000000 13.5950000000000006
  1.5900000000000001  2.7539607840345148 40.7850000000000037
 12.7200000000000006  0.0000000000000000 40.7850000000000037
  1.5900000000000001  2.7539607840345148 13.5950000000000006
 -3.1800000000000002 11.0158431361380593 40.7850000000000037
  0.0000000000000000  5.5079215680690297 40.7850000000000037
  4.7700000000000005  8.2618823521035445 13.5950000000000006
  1.5899999999999999  8.2618823521035445 13.5950000000000006
  6.3600000000000003  0.0000000000000000 40.7850000000000037
  6.3600000000000012  5.5079215680690297 40.7850000000000037
  4.7700000000000005  2.7539607840345148 13.5950000000000006
  6.3600000000000012  5.5079215680690297 13.5950000000000006
  4.7700000000000005  2.7539607840345148 40.7850000000000037
  3.1800000000000002  5.5079215680690297 13.5950000000000006
  7.9500000000000011  2.7539607840345148 40.7850000000000037
  3.1800000000000002  5.5079215680690297 40.7850000000000037
  7.9500000000000011  2.7539607840345148 13.5950000000000006
  0.0000000000000000 11.0158431361380593 40.7850000000000037
  1.5899999999999999  8.2618823521035445 40.7850000000000037
  9.5400000000000009  0.0000000000000000 40.7850000000000037
  0.0000000000000000 11.0158431361380593 13.5950000000000006
  9.5400000000000009  0.0000000000000000 13.5950000000000006
  6.3600000000000003  0.0000000000000000 13.5950000000000006
 11.1300000000000008  2.7539607840345148 13.5950000000000006
  3.1800000000000002  0.0000000000000000 40.7850000000000037
  3.1800000000000002  0.0000000000000000 13.5950000000000006
  0.0000000000000000  0.0000000000000000 13.5950000000000006
  6.3600000000000003 11.0158431361380593 40.7850000000000037
  0.0000000000000000  0.0000000000000000 40.7850000000000037
  6.3600000000000003 11.0158431361380593 13.5950000000000006
 -1.5900000000000001  2.7539607840345148 13.5950000000000006
 -1.5900000000000001  2.7539607840345148 40.7850000000000037
  7.9500000000000002  8.2618823521035445 40.7850000000000037
 -3.1800000000000002  5.5079215680690297 13.5950000000000006
 -3.1800000000000002  5.5079215680690297 40.7850000000000037
 -4.7700000000000005  8.2618823521035445 13.5950000000000006
  9.5400000000000009  5.5079215680690297 40.7850000000000037
 -4.7700000000000005  8.2618823521035445 40.7850000000000037
  7.9500000000000002  8.2618823521035445 13.5950000000000006
  9.5400000000000009  5.5079215680690297 13.5950000000000006
 -6.3600000000000003 11.0158431361380593 40.7850000000000037
 -6.3600000000000003 11.0158431361380593 13.5950000000000006
 11.1300000000000008  2.7539607840345148 40.7850000000000037
 14.3100000000000005  0.9179869280115049 12.0000000000000000
  9.5400000000000009  3.6719477120460198 39.1899999999999977
  9.5400000000000009  3.6719477120460198 42.3800000000000026
  9.5400000000000009  9.1798692801150494 42.3800000000000026
  9.5400000000000009  9.1798692801150494 39.1899999999999977
  9.5400000000000009  3.6719477120460198 12.0000000000000000
  9.5400000000000009  3.6719477120460198 15.1900000000000013
 11.1300000000000008  6.4259084960805346 15.1900000000000013
 11.1300000000000008  0.9179869280115049 39.1899999999999977
 11.1300000000000008  0.9179869280115049 42.3800000000000026
 14.3100000000000005  0.9179869280115049 42.3800000000000026
  7.9500000000000002 11.9338300641495643 12.0000000000000000
 11.1300000000000008  0.9179869280115049 12.0000000000000000
 14.3100000000000005  0.9179869280115049 39.1899999999999977
 11.1300000000000008  0.9179869280115049 15.1900000000000013
 12.7200000000000006  3.6719477120460198 12.0000000000000000
 12.7200000000000006  3.6719477120460198 42.3800000000000026
  7.9500000000000002 11.9338300641495643 15.1900000000000013
  7.9500000000000011  6.4259084960805346 15.1900000000000013
  7.9500000000000011  6.4259084960805346 12.0000000000000000
  4.7700000000000005 11.9338300641495643 12.0000000000000000
  4.7700000000000005 11.9338300641495643 42.3800000000000026
  4.7700000000000005 11.9338300641495643 15.1900000000000013
 11.1300000000000008  6.4259084960805346 12.0000000000000000
  4.7700000000000005 11.9338300641495643 39.1899999999999977
  6.3600000000000003  9.1798692801150494 39.1899999999999977
  6.3600000000000003  9.1798692801150494 42.3800000000000026
 11.1300000000000008  6.4259084960805346 42.3800000000000026
  6.3600000000000003  9.1798692801150494 12.0000000000000000
 11.1300000000000008  6.4259084960805346 39.1899999999999977
  6.3600000000000003  9.1798692801150494 15.1900000000000013
 12.7200000000000006  3.6719477120460198 39.1899999999999977
 12.7200000000000006  3.6719477120460198 15.1900000000000013
  7.9500000000000011  6.4259084960805346 39.1899999999999977
  7.9500000000000011  6.4259084960805346 42.3800000000000026
  9.5400000000000009  9.1798692801150494 15.1900000000000013
 14.3100000000000005  0.9179869280115049 15.1900000000000013
  9.5400000000000009  9.1798692801150494 12.0000000000000000
  1.5900000000000001 11.9338300641495643 39.1899999999999977
  7.9500000000000002  0.9179869280115049 42.3800000000000026
  1.5900000000000001 11.9338300641495643 12.0000000000000000
  3.1800000000000002  3.6719477120460198 12.0000000000000000
  3.1800000000000002  3.6719477120460198 15.1900000000000013
  4.7700000000000005  0.9179869280115049 39.1899999999999977
  4.7700000000000005  0.9179869280115049 42.3800000000000026
  4.7700000000000005  0.9179869280115049 12.0000000000000000
  4.7700000000000005  0.9179869280115049 15.1900000000000013
 -4.7700000000000005 11.9338300641495643 39.1899999999999977
 -4.7700000000000005 11.9338300641495643 42.3800000000000026
 -4.7700000000000005 11.9338300641495643 12.0000000000000000
 -4.7700000000000005 11.9338300641495643 15.1900000000000013
 -3.1800000000000006  9.1798692801150494 39.1899999999999977
 -3.1800000000000006  9.1798692801150494 42.3800000000000026
  3.1800000000000002  3.6719477120460198 42.3800000000000026
 -3.1800000000000006  9.1798692801150494 12.0000000000000000
 -1.5900000000000001  6.4259084960805346 39.1899999999999977
 -1.5900000000000001  6.4259084960805346 42.3800000000000026
 -1.5900000000000001  6.4259084960805346 12.0000000000000000
 -1.5900000000000001  6.4259084960805346 15.1900000000000013
  0.0000000000000000  3.6719477120460198 39.1899999999999977
  0.0000000000000000  3.6719477120460198 42.3800000000000026
  0.0000000000000000  3.6719477120460198 12.0000000000000000
  0.0000000000000000  3.6719477120460198 15.1900000000000013
  1.5900000000000001  0.9179869280115049 39.1899999999999977
  1.5900000000000001  0.9179869280115049 42.3800000000000026
  1.5900000000000001  0.9179869280115049 12.0000000000000000
  1.5900000000000001  0.9179869280115049 15.1900000000000013
 -3.1800000000000006  9.1798692801150494 15.1900000000000013
  3.1800000000000002  3.6719477120460198 39.1899999999999977
  1.5900000000000001  6.4259084960805346 15.1900000000000013
  1.5900000000000001  6.4259084960805346 12.0000000000000000
  1.5900000000000001 11.9338300641495643 15.1900000000000013
  3.1799999999999997  9.1798692801150494 39.1899999999999977
  3.1799999999999997  9.1798692801150494 42.3800000000000026
  3.1799999999999997  9.1798692801150494 12.0000000000000000
  3.1799999999999997  9.1798692801150494 15.1900000000000013
  4.7700000000000005  6.4259084960805346 39.1899999999999977
  4.7700000000000005  6.4259084960805346 42.3800000000000026
  4.7700000000000005  6.4259084960805346 12.0000000000000000
  4.7700000000000005  6.4259084960805346 15.1900000000000013
  6.3600000000000003  3.6719477120460198 39.1899999999999977
  6.3600000000000003  3.6719477120460198 42.3800000000000026
  6.3600000000000003  3.6719477120460198 12.0000000000000000
  6.3600000000000003  3.6719477120460198 15.1900000000000013
  7.9500000000000002  0.9179869280115049 39.1899999999999977
  7.9500000000000002 11.9338300641495643 42.3800000000000026
  7.9500000000000002  0.9179869280115049 12.0000000000000000
  7.9500000000000002  0.9179869280115049 15.1900000000000013
 -1.5900000000000001 11.9338300641495643 39.1899999999999977
 -1.5900000000000001 11.9338300641495643 42.3800000000000026
 -1.5900000000000001 11.9338300641495643 12.0000000000000000
 -1.5900000000000001 11.9338300641495643 15.1900000000000013
 -0.0000000000000002  9.1798692801150494 39.1899999999999977
 -0.0000000000000002  9.1798692801150494 42.3800000000000026
 -0.0000000000000002  9.1798692801150494 12.0000000000000000
 -0.0000000000000002  9.1798692801150494 15.1900000000000013
  1.5900000000000001  6.4259084960805346 39.1899999999999977
  1.5900000000000001  6.4259084960805346 42.3800000000000026
  1.5900000000000001 11.9338300641495643 42.3800000000000026
  7.9500000000000002 11.9338300641495643 39.1899999999999977
