 C Cr  H Mo  S 
 1.0000000000000000
    15.9000000000000004    0.0000000000000000    0.0000000000000000
    -7.9500000000000037   13.7698039201725724    0.0000000000000000
     0.0000000000000000    0.0000000000000000   32.3799999999999955
  10   1  10  50 100
Selective dynamics
Cartesian
  4.9505489935453166  5.0771383205095013 12.4276766601553597   T   T   T
  5.7914210335378087  5.0931845602731416 13.5747987796740439   T   T   T
  4.4582063305997117  6.3984928667234628 12.2089681964343981   T   T   T
  5.0040063723631905  7.2529926343081197 13.2326490424671288   T   T   T
  5.8336066394604398  6.4324901786442936 14.0843415294196141   T   T   T
  2.8202407987895559  4.4250507066236437 15.4197437995851949   T   T   T
  2.6183106138395749  6.7242554377253452 15.7060770184595810   T   T   T
  3.2974361732539421  5.5514402927857436 16.1886791789584912   T   T   T
  1.7337076538601428  6.3259461149136715 14.6614789713298155   T   T   T
  1.8552566520710820  4.9194513884856148 14.4784307898695968   T   T   T
  3.8201913838450374  5.8053178915218915 14.1744917717134467   T   T   T
  6.4051381389981419  6.7716843180666295 14.9449341623583773   T   T   T
  4.0105653991059933  5.5155296718106133 17.0084856337820298   T   T   T
  3.1130091498615000  3.3857163573431013 15.5488243773034736   T   T   T
  2.7672159826665976  7.7414791297744747 16.0601602813897664   T   T   T
  1.1245880859485817  6.9951219646330962 14.0566776001787037   T   T   T
  6.2787281561467578  4.2271433197677553 14.0169450787277921   T   T   T
  4.6772748414663567  4.1930456854590048 11.8552212976765468   T   T   T
  3.7814643206028533  6.7005272538348644 11.4128488982504983   T   T   T
  4.8532341468297258  8.3262042841832482 13.3205397786937123   T   T   T
  1.3320110184288909  4.3304394747958064 13.7278692094048047   T   T   T
  4.7700000000000005  8.2618823521035445 21.2850000000000001   T   T   T
 -3.1800000000000002 11.0158431361380593  7.0949999999999998   F   F   F
 -1.5900000000000003  8.2618823521035445 21.2850000000000001   T   T   T
  3.1800000000000006 11.0158431361380593  7.0949999999999998   F   F   F
 -1.5900000000000003  8.2618823521035445  7.0949999999999998   F   F   F
  3.1800000000000006 11.0158431361380593 21.2850000000000001   T   T   T
  0.0000000000000000  5.5079215680690297  7.0949999999999998   F   F   F
 12.7200000000000006  0.0000000000000000  7.0949999999999998   F   F   F
  1.5900000000000001  2.7539607840345148 21.2850000000000001   T   T   T
 12.7200000000000006  0.0000000000000000 21.2850000000000001   T   T   T
  1.5900000000000001  2.7539607840345148  7.0949999999999998   F   F   F
 -3.1800000000000002 11.0158431361380593 21.2850000000000001   T   T   T
  0.0000000000000000  5.5079215680690297 21.2850000000000001   T   T   T
  4.7700000000000005  8.2618823521035445  7.0949999999999998   F   F   F
  1.5899999999999999  8.2618823521035445  7.0949999999999998   F   F   F
  6.3600000000000003  0.0000000000000000 21.2850000000000001   T   T   T
  6.3600000000000012  5.5079215680690297 21.2850000000000001   T   T   T
  4.7700000000000005  2.7539607840345148  7.0949999999999998   F   F   F
  6.3600000000000012  5.5079215680690297  7.0949999999999998   F   F   F
  4.7700000000000005  2.7539607840345148 21.2850000000000001   T   T   T
  3.1800000000000002  5.5079215680690297  7.0949999999999998   F   F   F
  7.9500000000000011  2.7539607840345148 21.2850000000000001   T   T   T
  3.1800000000000002  5.5079215680690297 21.2850000000000001   T   T   T
  7.9500000000000011  2.7539607840345148  7.0949999999999998   F   F   F
  0.0000000000000000 11.0158431361380593 21.2850000000000001   T   T   T
  1.5899999999999999  8.2618823521035445 21.2850000000000001   T   T   T
  9.5400000000000009  0.0000000000000000 21.2850000000000001   T   T   T
  0.0000000000000000 11.0158431361380593  7.0949999999999998   F   F   F
  9.5400000000000009  0.0000000000000000  7.0949999999999998   F   F   F
  6.3600000000000003  0.0000000000000000  7.0949999999999998   F   F   F
 11.1300000000000008  2.7539607840345148  7.0949999999999998   F   F   F
  3.1800000000000002  0.0000000000000000 21.2850000000000001   T   T   T
  3.1800000000000002  0.0000000000000000  7.0949999999999998   F   F   F
  0.0000000000000000  0.0000000000000000  7.0949999999999998   F   F   F
  6.3600000000000003 11.0158431361380593 21.2850000000000001   T   T   T
  0.0000000000000000  0.0000000000000000 21.2850000000000001   T   T   T
  6.3600000000000003 11.0158431361380593  7.0949999999999998   F   F   F
 -1.5900000000000001  2.7539607840345148  7.0949999999999998   F   F   F
 -1.5900000000000001  2.7539607840345148 21.2850000000000001   T   T   T
  7.9500000000000002  8.2618823521035445 21.2850000000000001   T   T   T
 -3.1800000000000002  5.5079215680690297  7.0949999999999998   F   F   F
 -3.1800000000000002  5.5079215680690297 21.2850000000000001   T   T   T
 -4.7700000000000005  8.2618823521035445  7.0949999999999998   F   F   F
  9.5400000000000009  5.5079215680690297 21.2850000000000001   T   T   T
 -4.7700000000000005  8.2618823521035445 21.2850000000000001   T   T   T
  7.9500000000000002  8.2618823521035445  7.0949999999999998   F   F   F
  9.5400000000000009  5.5079215680690297  7.0949999999999998   F   F   F
 -6.3600000000000003 11.0158431361380593 21.2850000000000001   T   T   T
 -6.3600000000000003 11.0158431361380593  7.0949999999999998   F   F   F
 11.1300000000000008  2.7539607840345148 21.2850000000000001   T   T   T
 14.3100000000000005  0.9179869280115049  5.5000000000000000   F   F   F
  9.5400000000000009  3.6719477120460198 19.6899999999999977   T   T   T
  9.5400000000000009  3.6719477120460198 22.8799999999999990   T   T   T
  9.5400000000000009  9.1798692801150494 22.8799999999999990   T   T   T
  9.5400000000000009  9.1798692801150494 19.6899999999999977   T   T   T
  9.5400000000000009  3.6719477120460198  5.5000000000000000   F   F   F
  9.5400000000000009  3.6719477120460198  8.6899999999999995   F   F   F
 11.1300000000000008  6.4259084960805346  8.6899999999999995   F   F   F
 11.1300000000000008  0.9179869280115049 19.6899999999999977   T   T   T
 11.1300000000000008  0.9179869280115049 22.8799999999999990   T   T   T
 14.3100000000000005  0.9179869280115049 22.8799999999999990   T   T   T
  7.9500000000000002 11.9338300641495643  5.5000000000000000   F   F   F
 11.1300000000000008  0.9179869280115049  5.5000000000000000   F   F   F
 14.3100000000000005  0.9179869280115049 19.6899999999999977   T   T   T
 11.1300000000000008  0.9179869280115049  8.6899999999999995   F   F   F
 12.7200000000000006  3.6719477120460198  5.5000000000000000   F   F   F
 12.7200000000000006  3.6719477120460198 22.8799999999999990   T   T   T
  7.9500000000000002 11.9338300641495643  8.6899999999999995   F   F   F
  7.9500000000000011  6.4259084960805346  8.6899999999999995   F   F   F
  7.9500000000000011  6.4259084960805346  5.5000000000000000   F   F   F
  4.7700000000000005 11.9338300641495643  5.5000000000000000   F   F   F
  4.7700000000000005 11.9338300641495643 22.8799999999999990   T   T   T
  4.7700000000000005 11.9338300641495643  8.6899999999999995   F   F   F
 11.1300000000000008  6.4259084960805346  5.5000000000000000   F   F   F
  4.7700000000000005 11.9338300641495643 19.6899999999999977   T   T   T
  6.3600000000000003  9.1798692801150494 19.6899999999999977   T   T   T
  6.3600000000000003  9.1798692801150494 22.8799999999999990   T   T   T
 11.1300000000000008  6.4259084960805346 22.8799999999999990   T   T   T
  6.3600000000000003  9.1798692801150494  5.5000000000000000   F   F   F
 11.1300000000000008  6.4259084960805346 19.6899999999999977   T   T   T
  6.3600000000000003  9.1798692801150494  8.6899999999999995   F   F   F
 12.7200000000000006  3.6719477120460198 19.6899999999999977   T   T   T
 12.7200000000000006  3.6719477120460198  8.6899999999999995   F   F   F
  7.9500000000000011  6.4259084960805346 19.6899999999999977   T   T   T
  7.9500000000000011  6.4259084960805346 22.8799999999999990   T   T   T
  9.5400000000000009  9.1798692801150494  8.6899999999999995   F   F   F
 14.3100000000000005  0.9179869280115049  8.6899999999999995   F   F   F
  9.5400000000000009  9.1798692801150494  5.5000000000000000   F   F   F
  1.5900000000000001 11.9338300641495643 19.6899999999999977   T   T   T
  7.9500000000000002  0.9179869280115049 22.8799999999999990   T   T   T
  1.5900000000000001 11.9338300641495643  5.5000000000000000   F   F   F
  3.1800000000000002  3.6719477120460198  5.5000000000000000   F   F   F
  3.1800000000000002  3.6719477120460198  8.6899999999999995   F   F   F
  4.7700000000000005  0.9179869280115049 19.6899999999999977   T   T   T
  4.7700000000000005  0.9179869280115049 22.8799999999999990   T   T   T
  4.7700000000000005  0.9179869280115049  5.5000000000000000   F   F   F
  4.7700000000000005  0.9179869280115049  8.6899999999999995   F   F   F
 -4.7700000000000005 11.9338300641495643 19.6899999999999977   T   T   T
 -4.7700000000000005 11.9338300641495643 22.8799999999999990   T   T   T
 -4.7700000000000005 11.9338300641495643  5.5000000000000000   F   F   F
 -4.7700000000000005 11.9338300641495643  8.6899999999999995   F   F   F
 -3.1800000000000006  9.1798692801150494 19.6899999999999977   T   T   T
 -3.1800000000000006  9.1798692801150494 22.8799999999999990   T   T   T
  3.1800000000000002  3.6719477120460198 22.8799999999999990   T   T   T
 -3.1800000000000006  9.1798692801150494  5.5000000000000000   F   F   F
 -1.5900000000000001  6.4259084960805346 19.6899999999999977   T   T   T
 -1.5900000000000001  6.4259084960805346 22.8799999999999990   T   T   T
 -1.5900000000000001  6.4259084960805346  5.5000000000000000   F   F   F
 -1.5900000000000001  6.4259084960805346  8.6899999999999995   F   F   F
  0.0000000000000000  3.6719477120460198 19.6899999999999977   T   T   T
  0.0000000000000000  3.6719477120460198 22.8799999999999990   T   T   T
  0.0000000000000000  3.6719477120460198  5.5000000000000000   F   F   F
  0.0000000000000000  3.6719477120460198  8.6899999999999995   F   F   F
  1.5900000000000001  0.9179869280115049 19.6899999999999977   T   T   T
  1.5900000000000001  0.9179869280115049 22.8799999999999990   T   T   T
  1.5900000000000001  0.9179869280115049  5.5000000000000000   F   F   F
  1.5900000000000001  0.9179869280115049  8.6899999999999995   F   F   F
 -3.1800000000000006  9.1798692801150494  8.6899999999999995   F   F   F
  3.1800000000000002  3.6719477120460198 19.6899999999999977   T   T   T
  1.5900000000000001  6.4259084960805346  8.6899999999999995   F   F   F
  1.5900000000000001  6.4259084960805346  5.5000000000000000   F   F   F
  1.5900000000000001 11.9338300641495643  8.6899999999999995   F   F   F
  3.1799999999999997  9.1798692801150494 19.6899999999999977   T   T   T
  3.1799999999999997  9.1798692801150494 22.8799999999999990   T   T   T
  3.1799999999999997  9.1798692801150494  5.5000000000000000   F   F   F
  3.1799999999999997  9.1798692801150494  8.6899999999999995   F   F   F
  4.7700000000000005  6.4259084960805346 19.6899999999999977   T   T   T
  4.7700000000000005  6.4259084960805346 22.8799999999999990   T   T   T
  4.7700000000000005  6.4259084960805346  5.5000000000000000   F   F   F
  4.7700000000000005  6.4259084960805346  8.6899999999999995   F   F   F
  6.3600000000000003  3.6719477120460198 19.6899999999999977   T   T   T
  6.3600000000000003  3.6719477120460198 22.8799999999999990   T   T   T
  6.3600000000000003  3.6719477120460198  5.5000000000000000   F   F   F
  6.3600000000000003  3.6719477120460198  8.6899999999999995   F   F   F
  7.9500000000000002  0.9179869280115049 19.6899999999999977   T   T   T
  7.9500000000000002 11.9338300641495643 22.8799999999999990   T   T   T
  7.9500000000000002  0.9179869280115049  5.5000000000000000   F   F   F
  7.9500000000000002  0.9179869280115049  8.6899999999999995   F   F   F
 -1.5900000000000001 11.9338300641495643 19.6899999999999977   T   T   T
 -1.5900000000000001 11.9338300641495643 22.8799999999999990   T   T   T
 -1.5900000000000001 11.9338300641495643  5.5000000000000000   F   F   F
 -1.5900000000000001 11.9338300641495643  8.6899999999999995   F   F   F
 -0.0000000000000002  9.1798692801150494 19.6899999999999977   T   T   T
 -0.0000000000000002  9.1798692801150494 22.8799999999999990   T   T   T
 -0.0000000000000002  9.1798692801150494  5.5000000000000000   F   F   F
 -0.0000000000000002  9.1798692801150494  8.6899999999999995   F   F   F
  1.5900000000000001  6.4259084960805346 19.6899999999999977   T   T   T
  1.5900000000000001  6.4259084960805346 22.8799999999999990   T   T   T
  1.5900000000000001 11.9338300641495643 22.8799999999999990   T   T   T
  7.9500000000000002 11.9338300641495643 19.6899999999999977   T   T   T
