MoS2
1.000 
   3.190315390000000   0.000000000000000   0.000000000000000
  -1.595157086925583   2.762894524896298   0.000000000000000
   0.000000000000001   0.000000000000002  14.879004000000000
Mo  S   
2   4   
Cartesian
     1.5951594928489651881      0.9209639206672589617     11.1592529999999996448
    -0.0000011897745475440      1.8419306042290408687      3.7197510000000000296
    -0.0000011897745469927      1.8419306042290417569     12.7241373666960004840
     1.5951594928489647440      0.9209639206672582956      5.2846353666959995365
    -0.0000011897745471843      1.8419306042290415348      9.5943686333040005820
     1.5951594928489647440      0.9209639206672579625      2.1548666333040000787
