Cr  C  H  C  H Mo  S Mo  S Mo  S Mo  S Mo  S Mo  S Mo  S Mo  S Mo  S Mo  S Mo  S Mo  S Mo  S Mo  S Mo  S Mo  S Mo  S Mo  S 
 1.0000000000000000
     9.5400000000000009    0.0000000000000000    0.0000000000000000
    -4.7700000000000014    8.2618823521035427    0.0000000000000000
     0.0000000000000000    0.0000000000000000   54.3800000000000026
   1   5   4   5   6   1   2   1   2   1   2   1   2   1   2   1   2   1   2   1   2   1   2   1   2   1   2   1   2   1   2   1   2   1   2   1   2   1   2   1   2
Selective dynamics
Cartesian
  2.2237647613388334  3.0609735619701359 27.2056173761395819   T   T   F
  2.3459596704924963  4.1617791993949318 29.1115586659503478   T   T   F
  3.1638230248747257  4.7945494327654998 28.1348735622144872   T   T   F
  2.7864154685586429  2.8132888115312999 29.2657821740454658   T   T   F
  3.8991605391699431  2.6028647179510278 28.3749903231640666   T   T   F
  4.1289913354280596  3.8422480062400926 27.6693361266551463   T   T   F
  4.4849065802257169  1.6913589822375021 28.2838905971310517   T   T   F
  2.3487803128239855  2.0745401662651286 29.9334170784772766   T   T   F
  1.4880672726160324  4.6119058249459801 29.6069477516310400   T   T   F
  3.0444814644536735  5.8120277166202516 27.7695181932807493   T   T   F
  0.7760135060361653  3.6135400488074598 25.7723072674847096   T   T   F
  2.1370157767940534  1.7469996690581304 25.5024837379279816   T   T   F
  1.9722901561239738  3.1255099806260320 25.1254074515301014   T   T   F
  1.0573231117182993  1.3905957552406525 26.3624824546174814   T   T   F
  0.2220703014767751  2.5303841207681241 26.5349453084839269   T   T   F
 -0.6625948697157944  2.5780700801334282 27.1667342746919367   T   T   F
  2.9531967885698038  1.0942955008158322 25.2022877512880825   T   T   F
  0.9343480059359295  0.4313386171649980 26.8617925094085557   T   T   F
  0.3518250750020440  4.6102489912096880 25.6762528472838554   T   T   F
  2.6110776550716559  3.6850394950235801 24.4465829215227402   T   T   F
  4.9070082331912683  4.0280125250056882 26.9327888780597533   T   T   F
  0.0000000000000000  0.0000000000000000 13.5950000000000006   F   F   F
  1.5900000000000001  0.9179869280115049 15.1900000000000013   F   F   F
  1.5900000000000001  0.9179869280115049 12.0000000000000000   F   F   F
  0.0000000000000000  0.0000000000000000 40.7850000000000037   T   T   F
  1.5900000000000001  0.9179869280115049 42.3800000000000026   T   T   F
  1.5900000000000001  0.9179869280115049 39.1899999999999977   T   T   F
 -1.5900000000000001  2.7539607840345148 13.5950000000000006   F   F   F
  0.0000000000000000  3.6719477120460198 15.1900000000000013   F   F   F
  0.0000000000000000  3.6719477120460198 12.0000000000000000   F   F   F
 -1.5900000000000001  2.7539607840345148 40.7850000000000037   T   T   F
  0.0000000000000000  3.6719477120460198 42.3800000000000026   T   T   F
  0.0000000000000000  3.6719477120460198 39.1899999999999977   T   T   F
 -3.1800000000000002  5.5079215680690297 13.5950000000000006   F   F   F
 -1.5900000000000001  6.4259084960805346 15.1900000000000013   F   F   F
 -1.5900000000000001  6.4259084960805346 12.0000000000000000   F   F   F
 -3.1800000000000002  5.5079215680690297 40.7850000000000037   T   T   F
 -1.5900000000000001  6.4259084960805346 42.3800000000000026   T   T   F
 -1.5900000000000001  6.4259084960805346 39.1899999999999977   T   T   F
  3.1800000000000002  0.0000000000000000 13.5950000000000006   F   F   F
  4.7700000000000005  0.9179869280115049 15.1900000000000013   F   F   F
  4.7700000000000005  0.9179869280115049 12.0000000000000000   F   F   F
  3.1800000000000002  0.0000000000000000 40.7850000000000037   T   T   F
  4.7700000000000005  0.9179869280115049 42.3800000000000026   T   T   F
  4.7700000000000005  0.9179869280115049 39.1899999999999977   T   T   F
  1.5900000000000001  2.7539607840345148 13.5950000000000006   F   F   F
  3.1800000000000002  3.6719477120460198 15.1900000000000013   F   F   F
  3.1800000000000002  3.6719477120460198 12.0000000000000000   F   F   F
  1.5900000000000001  2.7539607840345148 40.7850000000000037   T   T   F
  3.1800000000000002  3.6719477120460198 42.3800000000000026   T   T   F
  3.1800000000000002  3.6719477120460198 39.1899999999999977   T   T   F
  0.0000000000000000  5.5079215680690297 13.5950000000000006   F   F   F
  1.5900000000000001  6.4259084960805346 15.1900000000000013   F   F   F
  1.5900000000000001  6.4259084960805346 12.0000000000000000   F   F   F
  0.0000000000000000  5.5079215680690297 40.7850000000000037   T   T   F
  1.5900000000000001  6.4259084960805346 42.3800000000000026   T   T   F
  1.5900000000000001  6.4259084960805346 39.1899999999999977   T   T   F
  6.3600000000000003  0.0000000000000000 13.5950000000000006   F   F   F
  7.9500000000000002  0.9179869280115049 15.1900000000000013   F   F   F
  7.9500000000000002  0.9179869280115049 12.0000000000000000   F   F   F
  6.3600000000000003  0.0000000000000000 40.7850000000000037   T   T   F
  7.9500000000000002  0.9179869280115049 42.3800000000000026   T   T   F
  7.9500000000000002  0.9179869280115049 39.1899999999999977   T   T   F
  4.7700000000000005  2.7539607840345148 13.5950000000000006   F   F   F
  6.3600000000000003  3.6719477120460198 15.1900000000000013   F   F   F
  6.3600000000000003  3.6719477120460198 12.0000000000000000   F   F   F
  4.7700000000000005  2.7539607840345148 40.7850000000000037   T   T   F
  6.3600000000000003  3.6719477120460198 42.3800000000000026   T   T   F
  6.3600000000000003  3.6719477120460198 39.1899999999999977   T   T   F
  3.1800000000000002  5.5079215680690297 13.5950000000000006   F   F   F
  4.7700000000000005  6.4259084960805346 15.1900000000000013   F   F   F
  4.7700000000000005  6.4259084960805346 12.0000000000000000   F   F   F
  3.1800000000000002  5.5079215680690297 40.7850000000000037   T   T   F
  4.7700000000000005  6.4259084960805346 42.3800000000000026   T   T   F
  4.7700000000000005  6.4259084960805346 39.1899999999999977   T   T   F
