 C Cr  H Mo  S 
 1.0000000000000000
    15.9000000000000004    0.0000000000000000    0.0000000000000000
    -7.9500000000000037   13.7698039201725724    0.0000000000000000
     0.0000000000000000    0.0000000000000000   32.3799999999999955
  10   1  10  50 100
Selective dynamics
Cartesian
  5.5001973668854127  4.9701256442170951 13.0044284800763847   T   T   T
  4.2806777853968265  4.3143394702458524 12.6789612606290394   T   T   T
  5.7354355678770732  4.8196982899850243 14.4038023138151772   T   T   T
  4.6483231681075239  4.0543169951005522 14.9591113418651407   T   T   T
  3.7414763529692117  3.7435976016682795 13.8784063461942182   T   T   T
  2.7305306201424662  7.4373654699596141 13.4013803435801400   T   T   T
  2.4158429122875393  6.6496136172072227 15.5669111266343858   T   T   T
  1.8976334131537249  6.5924581537281615 14.2260890269620379   T   T   T
  3.5453118288595480  7.5194720224486478 15.5689396332000047   T   T   T
  3.7458517961156099  8.0024141603508401 14.2449083555697111   T   T   T
  3.8495991694928140  5.8289537775424449 14.1864846020892124   T   T   T
  2.8251596013557601  3.1632047472823959 13.9547499401698918   T   T   T
  1.0167856999548963  6.0436862466167813 13.9022338294566712   T   T   T
  2.5969276601356195  7.6364869877762160 12.3406768681697407   T   T   T
  2.0283645431357264  6.1083005914000728 16.4266392971335371   T   T   T
  4.1893027859091099  7.7206128977717698 16.4230038344866429   T   T   T
  3.8139196980566124  4.2927209018461916 11.6967909407907218   T   T   T
  6.1137016363710686  5.5453156620885578 12.3139412273050866   T   T   T
  6.5837890698206438  5.2228306867409460 14.9522465338221711   T   T   T
  4.5521797029062192  3.7330989605806013 15.9934302962175607   T   T   T
  4.5534275090112990  8.6577235312342768 13.9248227263432049   T   T   T
  4.7700000000000005  8.2618823521035445 21.2850000000000001   T   T   T
 -3.1800000000000002 11.0158431361380593  7.0949999999999998   F   F   F
 -1.5900000000000003  8.2618823521035445 21.2850000000000001   T   T   T
  3.1800000000000006 11.0158431361380593  7.0949999999999998   F   F   F
 -1.5900000000000003  8.2618823521035445  7.0949999999999998   F   F   F
  3.1800000000000006 11.0158431361380593 21.2850000000000001   T   T   T
  0.0000000000000000  5.5079215680690297  7.0949999999999998   F   F   F
 12.7200000000000006  0.0000000000000000  7.0949999999999998   F   F   F
  1.5900000000000001  2.7539607840345148 21.2850000000000001   T   T   T
 12.7200000000000006  0.0000000000000000 21.2850000000000001   T   T   T
  1.5900000000000001  2.7539607840345148  7.0949999999999998   F   F   F
 -3.1800000000000002 11.0158431361380593 21.2850000000000001   T   T   T
  0.0000000000000000  5.5079215680690297 21.2850000000000001   T   T   T
  4.7700000000000005  8.2618823521035445  7.0949999999999998   F   F   F
  1.5899999999999999  8.2618823521035445  7.0949999999999998   F   F   F
  6.3600000000000003  0.0000000000000000 21.2850000000000001   T   T   T
  6.3600000000000012  5.5079215680690297 21.2850000000000001   T   T   T
  4.7700000000000005  2.7539607840345148  7.0949999999999998   F   F   F
  6.3600000000000012  5.5079215680690297  7.0949999999999998   F   F   F
  4.7700000000000005  2.7539607840345148 21.2850000000000001   T   T   T
  3.1800000000000002  5.5079215680690297  7.0949999999999998   F   F   F
  7.9500000000000011  2.7539607840345148 21.2850000000000001   T   T   T
  3.1800000000000002  5.5079215680690297 21.2850000000000001   T   T   T
  7.9500000000000011  2.7539607840345148  7.0949999999999998   F   F   F
  0.0000000000000000 11.0158431361380593 21.2850000000000001   T   T   T
  1.5899999999999999  8.2618823521035445 21.2850000000000001   T   T   T
  9.5400000000000009  0.0000000000000000 21.2850000000000001   T   T   T
  0.0000000000000000 11.0158431361380593  7.0949999999999998   F   F   F
  9.5400000000000009  0.0000000000000000  7.0949999999999998   F   F   F
  6.3600000000000003  0.0000000000000000  7.0949999999999998   F   F   F
 11.1300000000000008  2.7539607840345148  7.0949999999999998   F   F   F
  3.1800000000000002  0.0000000000000000 21.2850000000000001   T   T   T
  3.1800000000000002  0.0000000000000000  7.0949999999999998   F   F   F
  0.0000000000000000  0.0000000000000000  7.0949999999999998   F   F   F
  6.3600000000000003 11.0158431361380593 21.2850000000000001   T   T   T
  0.0000000000000000  0.0000000000000000 21.2850000000000001   T   T   T
  6.3600000000000003 11.0158431361380593  7.0949999999999998   F   F   F
 -1.5900000000000001  2.7539607840345148  7.0949999999999998   F   F   F
 -1.5900000000000001  2.7539607840345148 21.2850000000000001   T   T   T
  7.9500000000000002  8.2618823521035445 21.2850000000000001   T   T   T
 -3.1800000000000002  5.5079215680690297  7.0949999999999998   F   F   F
 -3.1800000000000002  5.5079215680690297 21.2850000000000001   T   T   T
 -4.7700000000000005  8.2618823521035445  7.0949999999999998   F   F   F
  9.5400000000000009  5.5079215680690297 21.2850000000000001   T   T   T
 -4.7700000000000005  8.2618823521035445 21.2850000000000001   T   T   T
  7.9500000000000002  8.2618823521035445  7.0949999999999998   F   F   F
  9.5400000000000009  5.5079215680690297  7.0949999999999998   F   F   F
 -6.3600000000000003 11.0158431361380593 21.2850000000000001   T   T   T
 -6.3600000000000003 11.0158431361380593  7.0949999999999998   F   F   F
 11.1300000000000008  2.7539607840345148 21.2850000000000001   T   T   T
 14.3100000000000005  0.9179869280115049  5.5000000000000000   F   F   F
  9.5400000000000009  3.6719477120460198 19.6899999999999977   T   T   T
  9.5400000000000009  3.6719477120460198 22.8799999999999990   T   T   T
  9.5400000000000009  9.1798692801150494 22.8799999999999990   T   T   T
  9.5400000000000009  9.1798692801150494 19.6899999999999977   T   T   T
  9.5400000000000009  3.6719477120460198  5.5000000000000000   F   F   F
  9.5400000000000009  3.6719477120460198  8.6899999999999995   F   F   F
 11.1300000000000008  6.4259084960805346  8.6899999999999995   F   F   F
 11.1300000000000008  0.9179869280115049 19.6899999999999977   T   T   T
 11.1300000000000008  0.9179869280115049 22.8799999999999990   T   T   T
 14.3100000000000005  0.9179869280115049 22.8799999999999990   T   T   T
  7.9500000000000002 11.9338300641495643  5.5000000000000000   F   F   F
 11.1300000000000008  0.9179869280115049  5.5000000000000000   F   F   F
 14.3100000000000005  0.9179869280115049 19.6899999999999977   T   T   T
 11.1300000000000008  0.9179869280115049  8.6899999999999995   F   F   F
 12.7200000000000006  3.6719477120460198  5.5000000000000000   F   F   F
 12.7200000000000006  3.6719477120460198 22.8799999999999990   T   T   T
  7.9500000000000002 11.9338300641495643  8.6899999999999995   F   F   F
  7.9500000000000011  6.4259084960805346  8.6899999999999995   F   F   F
  7.9500000000000011  6.4259084960805346  5.5000000000000000   F   F   F
  4.7700000000000005 11.9338300641495643  5.5000000000000000   F   F   F
  4.7700000000000005 11.9338300641495643 22.8799999999999990   T   T   T
  4.7700000000000005 11.9338300641495643  8.6899999999999995   F   F   F
 11.1300000000000008  6.4259084960805346  5.5000000000000000   F   F   F
  4.7700000000000005 11.9338300641495643 19.6899999999999977   T   T   T
  6.3600000000000003  9.1798692801150494 19.6899999999999977   T   T   T
  6.3600000000000003  9.1798692801150494 22.8799999999999990   T   T   T
 11.1300000000000008  6.4259084960805346 22.8799999999999990   T   T   T
  6.3600000000000003  9.1798692801150494  5.5000000000000000   F   F   F
 11.1300000000000008  6.4259084960805346 19.6899999999999977   T   T   T
  6.3600000000000003  9.1798692801150494  8.6899999999999995   F   F   F
 12.7200000000000006  3.6719477120460198 19.6899999999999977   T   T   T
 12.7200000000000006  3.6719477120460198  8.6899999999999995   F   F   F
  7.9500000000000011  6.4259084960805346 19.6899999999999977   T   T   T
  7.9500000000000011  6.4259084960805346 22.8799999999999990   T   T   T
  9.5400000000000009  9.1798692801150494  8.6899999999999995   F   F   F
 14.3100000000000005  0.9179869280115049  8.6899999999999995   F   F   F
  9.5400000000000009  9.1798692801150494  5.5000000000000000   F   F   F
  1.5900000000000001 11.9338300641495643 19.6899999999999977   T   T   T
  7.9500000000000002  0.9179869280115049 22.8799999999999990   T   T   T
  1.5900000000000001 11.9338300641495643  5.5000000000000000   F   F   F
  3.1800000000000002  3.6719477120460198  5.5000000000000000   F   F   F
  3.1800000000000002  3.6719477120460198  8.6899999999999995   F   F   F
  4.7700000000000005  0.9179869280115049 19.6899999999999977   T   T   T
  4.7700000000000005  0.9179869280115049 22.8799999999999990   T   T   T
  4.7700000000000005  0.9179869280115049  5.5000000000000000   F   F   F
  4.7700000000000005  0.9179869280115049  8.6899999999999995   F   F   F
 -4.7700000000000005 11.9338300641495643 19.6899999999999977   T   T   T
 -4.7700000000000005 11.9338300641495643 22.8799999999999990   T   T   T
 -4.7700000000000005 11.9338300641495643  5.5000000000000000   F   F   F
 -4.7700000000000005 11.9338300641495643  8.6899999999999995   F   F   F
 -3.1800000000000006  9.1798692801150494 19.6899999999999977   T   T   T
 -3.1800000000000006  9.1798692801150494 22.8799999999999990   T   T   T
  3.1800000000000002  3.6719477120460198 22.8799999999999990   T   T   T
 -3.1800000000000006  9.1798692801150494  5.5000000000000000   F   F   F
 -1.5900000000000001  6.4259084960805346 19.6899999999999977   T   T   T
 -1.5900000000000001  6.4259084960805346 22.8799999999999990   T   T   T
 -1.5900000000000001  6.4259084960805346  5.5000000000000000   F   F   F
 -1.5900000000000001  6.4259084960805346  8.6899999999999995   F   F   F
  0.0000000000000000  3.6719477120460198 19.6899999999999977   T   T   T
  0.0000000000000000  3.6719477120460198 22.8799999999999990   T   T   T
  0.0000000000000000  3.6719477120460198  5.5000000000000000   F   F   F
  0.0000000000000000  3.6719477120460198  8.6899999999999995   F   F   F
  1.5900000000000001  0.9179869280115049 19.6899999999999977   T   T   T
  1.5900000000000001  0.9179869280115049 22.8799999999999990   T   T   T
  1.5900000000000001  0.9179869280115049  5.5000000000000000   F   F   F
  1.5900000000000001  0.9179869280115049  8.6899999999999995   F   F   F
 -3.1800000000000006  9.1798692801150494  8.6899999999999995   F   F   F
  3.1800000000000002  3.6719477120460198 19.6899999999999977   T   T   T
  1.5900000000000001  6.4259084960805346  8.6899999999999995   F   F   F
  1.5900000000000001  6.4259084960805346  5.5000000000000000   F   F   F
  1.5900000000000001 11.9338300641495643  8.6899999999999995   F   F   F
  3.1799999999999997  9.1798692801150494 19.6899999999999977   T   T   T
  3.1799999999999997  9.1798692801150494 22.8799999999999990   T   T   T
  3.1799999999999997  9.1798692801150494  5.5000000000000000   F   F   F
  3.1799999999999997  9.1798692801150494  8.6899999999999995   F   F   F
  4.7700000000000005  6.4259084960805346 19.6899999999999977   T   T   T
  4.7700000000000005  6.4259084960805346 22.8799999999999990   T   T   T
  4.7700000000000005  6.4259084960805346  5.5000000000000000   F   F   F
  4.7700000000000005  6.4259084960805346  8.6899999999999995   F   F   F
  6.3600000000000003  3.6719477120460198 19.6899999999999977   T   T   T
  6.3600000000000003  3.6719477120460198 22.8799999999999990   T   T   T
  6.3600000000000003  3.6719477120460198  5.5000000000000000   F   F   F
  6.3600000000000003  3.6719477120460198  8.6899999999999995   F   F   F
  7.9500000000000002  0.9179869280115049 19.6899999999999977   T   T   T
  7.9500000000000002 11.9338300641495643 22.8799999999999990   T   T   T
  7.9500000000000002  0.9179869280115049  5.5000000000000000   F   F   F
  7.9500000000000002  0.9179869280115049  8.6899999999999995   F   F   F
 -1.5900000000000001 11.9338300641495643 19.6899999999999977   T   T   T
 -1.5900000000000001 11.9338300641495643 22.8799999999999990   T   T   T
 -1.5900000000000001 11.9338300641495643  5.5000000000000000   F   F   F
 -1.5900000000000001 11.9338300641495643  8.6899999999999995   F   F   F
 -0.0000000000000002  9.1798692801150494 19.6899999999999977   T   T   T
 -0.0000000000000002  9.1798692801150494 22.8799999999999990   T   T   T
 -0.0000000000000002  9.1798692801150494  5.5000000000000000   F   F   F
 -0.0000000000000002  9.1798692801150494  8.6899999999999995   F   F   F
  1.5900000000000001  6.4259084960805346 19.6899999999999977   T   T   T
  1.5900000000000001  6.4259084960805346 22.8799999999999990   T   T   T
  1.5900000000000001 11.9338300641495643 22.8799999999999990   T   T   T
  7.9500000000000002 11.9338300641495643 19.6899999999999977   T   T   T
