 C Co  H Mo  S                          
   1.00000000000000     
     9.5709464550000014    0.0000000000000000    0.0000000000000000
    -6.3806280268000020   11.0515787236000005    0.0000000000000000
     0.0000000000000000    0.0000000000000000   34.8802625070458063
   C    Co   H    Mo   S 
    10     1    10    24    48
Direct
  0.1922384781604539  0.3230893654832903  0.4390495564495838
  0.0258278823969106  0.2509619000933602  0.4282967250432674
  0.2057878718394314  0.3030239530186633  0.4788646342456171
  0.0474577421567498  0.2191995028685132  0.4928546294575248
  0.9367069690699013  0.1858634282874485  0.4614475129600972
  0.0181621309391012  0.5040929356170157  0.4482648908669140
  0.9357624776730926  0.4247755146575395  0.5091604471219923
  0.8808808459999028  0.4241855993221077  0.4709642376649961
  0.1066354252166385  0.5067120256147649  0.5102601084170297
  0.1573286282861626  0.5561117865656534  0.4726981859985419
  0.0511597173605236  0.3699924643117270  0.4712526312988304
  0.8069306853775289  0.1256292945447625  0.4629518557820683
  0.7580819615078278  0.3689124129063366  0.4605343324972039
  0.1840076241190138  0.5253561807638123  0.5351466171925822
  0.8618309898900480  0.3708871173854886  0.5330679925436946
  0.0175376120079567  0.5208392497858928  0.4177193557589072
  0.9761746285644209  0.2481916361870238  0.4000233041066777
  0.2897167986614995  0.3843843165843145  0.4202571904033792
  0.3155058052703041  0.3469051981785669  0.4959338832542043
  0.0167199234067675  0.1880352239340678  0.5222943970835130
  0.2805160495607185  0.6187179964618189  0.4638461219579567
  0.5559007492830083  0.0838327611255021  0.2502316445690028
  0.5559019935256156  0.3338219034012578  0.2502394691635831
  0.4440855487626514  0.4161722460630393  0.7499307042236433
  0.5559210091253348  0.5838431807813125  0.2501969115140745
  0.4440864150913386  0.6661708090108298  0.7499343626537556
  0.5559279589932359  0.8338558586786591  0.2501825078840442
  0.4440713750883732  0.9161611442838279  0.7499409948771054
  0.8892602402141168  0.3338321643829005  0.2502361404860844
  0.7774160250434445  0.1661377651957446  0.7499376270050184
  0.7774225939017455  0.4161495010926771  0.7499330780574349
  0.8892670865688115  0.5838387639886090  0.2501891853632581
  0.7774274626955168  0.6661471145857708  0.7499355883076586
  0.8892769146347382  0.8338433501328585  0.2501609035333706
  0.7774220568612362  0.9161375693244308  0.7499405238511417
  0.1107325616035663  0.9161440064922253  0.7499450310357785
  0.8892773546000620  0.0838245550047224  0.2502051514301858
  0.2225819251738805  0.8338622205848035  0.2501850932223167
  0.4440749325039589  0.1661646289739698  0.7499376582720786
  0.2225877346516334  0.5838657497856055  0.2502159372972787
  0.1107374986584139  0.4161510558072971  0.7499349292488571
  0.2225686355527677  0.3338287599842970  0.2502381817358717
  0.2225717858223268  0.0838503332348347  0.2502131012822228
  0.1107345167768036  0.1661448532173339  0.7499407912112347
  0.1107347255818138  0.6661521467159763  0.7499395058372506
  0.7775432477642602  0.1663409289618010  0.2947701982529837
  0.8891445305961396  0.0835878118606991  0.7945040456758193
  0.7774900401590168  0.1664101199426171  0.2056703318066404
  0.8891549723031685  0.0835890441532845  0.7053948822599531
  0.2224827190380873  0.0836007864113964  0.7053990528637506
  0.1108662222879760  0.1664395676559038  0.2056565231605351
  0.7775321331198458  0.4164243280390701  0.2947545307442934
  0.8891486855675526  0.3335931719192090  0.7944977938630646
  0.1108596737723764  0.6663834160889766  0.2056344308058229
  0.5558302656381900  0.8336303644419455  0.7053949361550252
  0.8891550759705268  0.3335960979650926  0.7053893570147146
  0.2224935476750727  0.0836091154813462  0.7945061996112633
  0.1107631967144232  0.1663425547821240  0.2947637057248642
  0.7775369004088490  0.6664277245301619  0.2947033767134770
  0.8891425904771708  0.5835845227719776  0.7945010757096712
  0.7774642302365462  0.6663415266358715  0.2056169940155797
  0.8891709091650427  0.5836119725026133  0.7053909436360326
  0.7774987493754308  0.9163291233684060  0.2947078413371598
  0.8891371794075540  0.8335785459998359  0.7945067654088929
  0.7774511005415421  0.4163168591656300  0.2056634272234465
  0.4442013437434338  0.9164536097815288  0.2056341671463038
  0.4441173535745193  0.9163257857556779  0.2947256229648966
  0.2224972138004740  0.5836248106876488  0.7053922914894846
  0.2224936185342127  0.5836023078480391  0.7944991752620950
  0.1107672808074337  0.9163455977329117  0.2947094557261548
  0.2224880015934295  0.8335973723727483  0.7945078374700885
  0.1109091723812387  0.9164583828539596  0.2056174209730654
  0.2224920788207097  0.8336182312699109  0.7053989740037432
  0.1108107287111785  0.6664166664554945  0.2947321923566651
  0.7775050494995228  0.9164281249863045  0.2056161095262810
  0.4440932734856434  0.1663305530272707  0.2947530571845463
  0.5558233848171827  0.0836181237978828  0.7945024546110243
  0.4441971242493272  0.1664089736927138  0.2056654006624798
  0.5558146475423579  0.0836120658355858  0.7053951911436077
  0.4441632163698345  0.4164154347720822  0.2947606479474405
  0.5558258570105505  0.3336247735632946  0.7944966145217086
  0.4441234696591607  0.4163311579752960  0.2056683282087192
  0.5558261333300325  0.3336193421911508  0.7053902511206561
  0.2224874715796026  0.3336073160824662  0.7053927353215287
  0.1108192833885933  0.4163780559254691  0.2056783519014317
  0.4442169823838897  0.6664317796130691  0.2947254679964962
  0.5558222383179555  0.5836130949027000  0.7944973779812402
  0.4441229196216239  0.6663680583684605  0.2056359136768768
  0.5558398901136914  0.5836372365010021  0.7053897791633689
  0.2225000535087642  0.3336135678010570  0.7944982510482951
  0.1108263253782302  0.4163911137179818  0.2947839256143550
  0.5558198328238146  0.8336073441460694  0.7945030945083196
  0.8891695070924392  0.8336064997633584  0.7053956921813769
 
  0.00000000E+00  0.00000000E+00  0.00000000E+00
  0.00000000E+00  0.00000000E+00  0.00000000E+00
  0.00000000E+00  0.00000000E+00  0.00000000E+00
  0.00000000E+00  0.00000000E+00  0.00000000E+00
  0.00000000E+00  0.00000000E+00  0.00000000E+00
  0.00000000E+00  0.00000000E+00  0.00000000E+00
  0.00000000E+00  0.00000000E+00  0.00000000E+00
  0.00000000E+00  0.00000000E+00  0.00000000E+00
  0.00000000E+00  0.00000000E+00  0.00000000E+00
  0.00000000E+00  0.00000000E+00  0.00000000E+00
  0.00000000E+00  0.00000000E+00  0.00000000E+00
  0.00000000E+00  0.00000000E+00  0.00000000E+00
  0.00000000E+00  0.00000000E+00  0.00000000E+00
  0.00000000E+00  0.00000000E+00  0.00000000E+00
  0.00000000E+00  0.00000000E+00  0.00000000E+00
  0.00000000E+00  0.00000000E+00  0.00000000E+00
  0.00000000E+00  0.00000000E+00  0.00000000E+00
  0.00000000E+00  0.00000000E+00  0.00000000E+00
  0.00000000E+00  0.00000000E+00  0.00000000E+00
  0.00000000E+00  0.00000000E+00  0.00000000E+00
  0.00000000E+00  0.00000000E+00  0.00000000E+00
  0.00000000E+00  0.00000000E+00  0.00000000E+00
  0.00000000E+00  0.00000000E+00  0.00000000E+00
  0.00000000E+00  0.00000000E+00  0.00000000E+00
  0.00000000E+00  0.00000000E+00  0.00000000E+00
  0.00000000E+00  0.00000000E+00  0.00000000E+00
  0.00000000E+00  0.00000000E+00  0.00000000E+00
  0.00000000E+00  0.00000000E+00  0.00000000E+00
  0.00000000E+00  0.00000000E+00  0.00000000E+00
  0.00000000E+00  0.00000000E+00  0.00000000E+00
  0.00000000E+00  0.00000000E+00  0.00000000E+00
  0.00000000E+00  0.00000000E+00  0.00000000E+00
  0.00000000E+00  0.00000000E+00  0.00000000E+00
  0.00000000E+00  0.00000000E+00  0.00000000E+00
  0.00000000E+00  0.00000000E+00  0.00000000E+00
  0.00000000E+00  0.00000000E+00  0.00000000E+00
  0.00000000E+00  0.00000000E+00  0.00000000E+00
  0.00000000E+00  0.00000000E+00  0.00000000E+00
  0.00000000E+00  0.00000000E+00  0.00000000E+00
  0.00000000E+00  0.00000000E+00  0.00000000E+00
  0.00000000E+00  0.00000000E+00  0.00000000E+00
  0.00000000E+00  0.00000000E+00  0.00000000E+00
  0.00000000E+00  0.00000000E+00  0.00000000E+00
  0.00000000E+00  0.00000000E+00  0.00000000E+00
  0.00000000E+00  0.00000000E+00  0.00000000E+00
  0.00000000E+00  0.00000000E+00  0.00000000E+00
  0.00000000E+00  0.00000000E+00  0.00000000E+00
  0.00000000E+00  0.00000000E+00  0.00000000E+00
  0.00000000E+00  0.00000000E+00  0.00000000E+00
  0.00000000E+00  0.00000000E+00  0.00000000E+00
  0.00000000E+00  0.00000000E+00  0.00000000E+00
  0.00000000E+00  0.00000000E+00  0.00000000E+00
  0.00000000E+00  0.00000000E+00  0.00000000E+00
  0.00000000E+00  0.00000000E+00  0.00000000E+00
  0.00000000E+00  0.00000000E+00  0.00000000E+00
  0.00000000E+00  0.00000000E+00  0.00000000E+00
  0.00000000E+00  0.00000000E+00  0.00000000E+00
  0.00000000E+00  0.00000000E+00  0.00000000E+00
  0.00000000E+00  0.00000000E+00  0.00000000E+00
  0.00000000E+00  0.00000000E+00  0.00000000E+00
  0.00000000E+00  0.00000000E+00  0.00000000E+00
  0.00000000E+00  0.00000000E+00  0.00000000E+00
  0.00000000E+00  0.00000000E+00  0.00000000E+00
  0.00000000E+00  0.00000000E+00  0.00000000E+00
  0.00000000E+00  0.00000000E+00  0.00000000E+00
  0.00000000E+00  0.00000000E+00  0.00000000E+00
  0.00000000E+00  0.00000000E+00  0.00000000E+00
  0.00000000E+00  0.00000000E+00  0.00000000E+00
  0.00000000E+00  0.00000000E+00  0.00000000E+00
  0.00000000E+00  0.00000000E+00  0.00000000E+00
  0.00000000E+00  0.00000000E+00  0.00000000E+00
  0.00000000E+00  0.00000000E+00  0.00000000E+00
  0.00000000E+00  0.00000000E+00  0.00000000E+00
  0.00000000E+00  0.00000000E+00  0.00000000E+00
  0.00000000E+00  0.00000000E+00  0.00000000E+00
  0.00000000E+00  0.00000000E+00  0.00000000E+00
  0.00000000E+00  0.00000000E+00  0.00000000E+00
  0.00000000E+00  0.00000000E+00  0.00000000E+00
  0.00000000E+00  0.00000000E+00  0.00000000E+00
  0.00000000E+00  0.00000000E+00  0.00000000E+00
  0.00000000E+00  0.00000000E+00  0.00000000E+00
  0.00000000E+00  0.00000000E+00  0.00000000E+00
  0.00000000E+00  0.00000000E+00  0.00000000E+00
  0.00000000E+00  0.00000000E+00  0.00000000E+00
  0.00000000E+00  0.00000000E+00  0.00000000E+00
  0.00000000E+00  0.00000000E+00  0.00000000E+00
  0.00000000E+00  0.00000000E+00  0.00000000E+00
  0.00000000E+00  0.00000000E+00  0.00000000E+00
  0.00000000E+00  0.00000000E+00  0.00000000E+00
  0.00000000E+00  0.00000000E+00  0.00000000E+00
  0.00000000E+00  0.00000000E+00  0.00000000E+00
  0.00000000E+00  0.00000000E+00  0.00000000E+00
  0.00000000E+00  0.00000000E+00  0.00000000E+00
