 C Cr  H Mo  S                          
   1.00000000000000     
    15.9000000000000004    0.0000000000000000    0.0000000000000000
    -7.9500000000000037   13.7698039201725724    0.0000000000000000
     0.0000000000000000    0.0000000000000000   32.3799999999999955
   C    Cr   H    Mo   S 
    10     1    10    50   100
Direct
  0.0506300448695541  0.9021412385673159  0.9935207057863005
  0.9502391289428411  0.8578009886408100  0.0046045084789729
  0.1072791242264252  0.9384638132563021  0.0299740631817953
  0.0431027532084710  0.9173706724137849  0.0642125128037023
  0.9448551056707511  0.8665392737355814  0.0487851637503939
  0.9363775159569544  0.0631104758732507  0.9943019430867897
  0.0191028698723670  0.1243645783376211  0.0561706720650294
  0.9248841281135390  0.0605048281100264  0.0386588952905140
  0.0869493475503003  0.1658234803873718  0.0231125652427970
  0.0368079507408975  0.1284772651329332  0.9852232284163555
  0.0150104018074497  0.0051424055237939  0.0233137149905144
  0.8790965056559000  0.8375008698351180  0.0672970308136215
  0.8571676091954442  0.0202765719273914  0.0556617848382645
  0.8791068720762659  0.0241933321156765  0.9717425647238551
  0.0357871423581030  0.1384206382988105  0.0888704627137698
  0.1648518062245837  0.2140493596628075  0.0265009011921392
  0.8890666866250668  0.8227670716454007  0.9834813817572456
  0.0789523237479055  0.9102231949663605  0.9622856901223079
  0.1862123149285361  0.9793963714198842  0.0313641207700646
  0.0648260344574419  0.9361384684277073  0.0962385119749601
  0.0697426562282389  0.1444030364480784  0.9546767596426707
  0.5998619568295256  0.5998756451640552  0.6573360039153635
  0.1967935905633051  0.7980603409790200  0.2125793569877505
  0.1998412965208808  0.5998504275034398  0.6573239955274581
  0.5967336048785740  0.7981069583444694  0.2125377190558942
  0.1967817642328103  0.5981165414154536  0.2124859599413073
  0.5998425509118261  0.7998530792810589  0.6573413659561615
  0.1967680294195320  0.3981681455524644  0.2124712053169428
  0.7966558913950312 -0.0019338970671032  0.2126185171764115
  0.1998378783025956  0.1998483648790460  0.6573263624767565
  0.7998480798236627 -0.0001409230570858  0.6573381420175336
  0.1968593114631293  0.1982033399776341  0.2125669808111228
  0.1998356446355206  0.7998490628818179  0.6573273036041323
  0.1998357072403739  0.3998488503062789  0.6573240991811612
  0.5968021077102346  0.5981361723945987  0.2125171075868939
  0.3967854452111154  0.5981395161414385  0.2124809955805169
  0.3998218516599437 -0.0001499918455559  0.6573272546002190
  0.5998394712156895  0.3998480414099124  0.6573213268953371
  0.3967980952902422  0.1981423371373102  0.2124979908415765
  0.5968238063980926  0.3981590790496550  0.2124772505242439
  0.3998261633947732  0.1998442078476971  0.6573214892428542
  0.3968273628165177  0.3981532395910695  0.2124886215089391
  0.5998359127938683  0.1998529341622718  0.6573205986605396
  0.3998237959323723  0.3998408864493705  0.6573288257458491
  0.5968015559388888  0.1981284126518330  0.2124727306188985
  0.3998355357039077  0.7998495715358545  0.6573313135809391
  0.3998358920641197  0.5998524283257166  0.6573342986107714
  0.5998604068039801 -0.0001472726159242  0.6573336666027139
  0.3968054203759254  0.7981187364256817  0.2125070998680748
  0.5967868668927381 -0.0018624196337538  0.2125113237316358
  0.3968041475958081 -0.0018653692209076  0.2125101141899662
  0.7968153848460741  0.1981180988544308  0.2124696123338370
  0.1998385115338484 -0.0001473144382785  0.6573281120101820
  0.1967706945955351 -0.0018945952567005  0.2125585226563425
 -0.0032302872098391 -0.0018870911042485  0.2125953140425968
  0.7998494371689926  0.7998601280976764  0.6573398233137397
 -0.0001600213212206 -0.0001481948854634  0.6573237373768803
  0.7966858173345884  0.7980821750325665  0.2126578628554962
 -0.0032499710093021  0.1980873135381237  0.2124958185384007
 -0.0001628516739469  0.1998470882985172  0.6573270796199371
  0.7998422767140131  0.5998616810910474  0.6573232859174852
 -0.0031929963750507  0.3981207389732610  0.2124424634104978
 -0.0001559394166200  0.3998382150576075  0.6573170007527238
 -0.0031838750583372  0.5981522282234190  0.2124765870849795
  0.7998344528915238  0.3998475913411750  0.6573143145149485
 -0.0001590676845113  0.5998733812719893  0.6573192868281033
  0.7968401613939035  0.5981943204715130  0.2124993958717904
  0.7968074760103186  0.3981460849140442  0.2124445369139209
 -0.0001627299674592  0.7998570774350009  0.6573315098925077
 -0.0031906470136497  0.7981257190437757  0.2125470054692502
  0.7998371208934831  0.1998443191466311  0.6573211804550549
  0.9298019378438781  0.0644796874023344  0.1643960938639120
  0.7331654482929443  0.2665070621407358  0.6090653994659893
  0.7331733280027976  0.2665242904539130  0.7055736606379800
  0.9331676811375356  0.6665172282367168  0.7055826319284404
  0.9331721704673641  0.6665418246262701  0.6090697534535023
  0.7301386349705549  0.2647742579345699  0.1642088715303948
  0.7301635406269493  0.2648390642698381  0.2607137333679662
  0.9301259772838686  0.4647716037630169  0.2607067755147477
  0.7331817828442950  0.0665060102994189  0.6090765524488827
  0.7331880859193849  0.0665372727699549  0.7055909223144109
  0.9331879841057553  0.0665258983796439  0.7055878092684220
  0.9297947640041219  0.8646584686634927  0.1644419848474497
  0.7301283294413538  0.0647056177103995  0.1642640310785277
  0.9331652055051871  0.0665106456464518  0.6090783519961052
  0.7300698095427280  0.0648990738944473  0.2608005231485049
  0.9301344783762697  0.2647214538997567  0.1641880258910436
  0.9331670975095268  0.2665167869533093  0.7055789875173928
  0.9301596175096907  0.8647709056795616  0.2608735483931339
  0.7301726810162619  0.4647928814894136  0.2607261461804042
  0.7301722694136688  0.4648943826194760  0.1642214109882242
  0.7301361658698479  0.8647837494760308  0.1643266318889013
  0.7331792129757426  0.8665241067298606  0.7055969189911718
  0.7299480393920307  0.8647368729601123  0.2608810398490800
  0.9301637979518022  0.4648467118858660  0.1641946485867286
  0.7331733333580303  0.8665196229826576  0.6090885187812383
  0.7331824744856937  0.6665436514384325  0.6090792269687690
  0.7331906534397449  0.6665208759170625  0.7055911237838800
  0.9331742245771972  0.4665190129692375  0.7055674854344947
  0.7301856267147470  0.6649352927600088  0.1642867145550624
  0.9331821790573859  0.4665257620465123  0.6090670517954243
  0.7300603073894829  0.6646506659356582  0.2608240264782751
  0.9331701891851160  0.2665003234771550  0.6090677660040021
  0.9301410147133404  0.2648351391512271  0.2607249553761688
  0.7331683017957695  0.4665263027180307  0.6090669803296620
  0.7331749659780220  0.4665116932504420  0.7055734231475527
  0.9301475423457629  0.6647520467283349  0.2607695609301084
  0.9301186365307166  0.0648446850767560  0.2608337931422007
  0.9301819104704390  0.6649081304799556  0.1642196876081944
  0.5331841906007799  0.8665182396365605  0.6090839339164607
  0.5331713872635728  0.0665242602485843  0.7055795800441684
  0.5301445883467367  0.8647943253750372  0.1642611662866612
  0.3301159121936107  0.2648020341454897  0.1642508014902628
  0.3302356227140993  0.2648795861398147  0.2607834421371253
  0.3331607073239581  0.0665137085175355  0.6090721770501172
  0.3331708363905443  0.0665265666615651  0.7055851250440771
  0.3300517023098901  0.0647369241634203  0.1642582201594227
  0.3301677579292460  0.0648204290674829  0.2607748566550047
  0.1331680345251905  0.8665173976072728  0.6090771617279503
  0.1331731345514784  0.8665158978570597  0.7055860572765370
  0.1301971208199120  0.8646915726381880  0.1643384474033728
  0.1301410621447613  0.8647732480794380  0.2608337783978448
  0.1331776573429949  0.6665250899301288  0.6090706253408600
  0.1331612369115965  0.6665095934209401  0.7055802468925348
  0.3331692427220663  0.2665086888106317  0.7055834348038702
  0.1301708171638780  0.6648439731561407  0.1642422696224411
  0.1331808221825204  0.4665176827629149  0.6090680769987475
  0.1331627343713231  0.4665100377436895  0.7055788830491923
  0.1301490406053883  0.4648484708244697  0.1641952529766909
  0.1300869385474052  0.4647745565516912  0.2607285583800572
  0.1331691084702892  0.2665126305088832  0.6090732858567610
  0.1331730156765587  0.2665209592962197  0.7055826896881625
  0.1301556419641413  0.2647651979445627  0.1642520269848634
  0.1301107279650116  0.2648874459255640  0.2607611388694713
  0.1331724947688887  0.0665148194029420  0.6090753693018408
  0.1331719116112133  0.0665192299286697  0.7055832885117088
  0.1301765505911419  0.0649747820170502  0.1643638650098395
  0.1301712344707323  0.0648452097190359  0.2608328851695642
  0.1300774468050757  0.6646762264126626  0.2607802172643283
  0.3331652758996068  0.2665160187386603  0.6090718218466944
  0.3301034028375099  0.4648042150773433  0.2607317409746892
  0.3301424202296608  0.4648134916517259  0.1642293887889409
  0.5300922627106854  0.8648112122062254  0.2607841412126063
  0.5331817288628101  0.6665293831417060  0.6090850829075474
  0.5331705341875181  0.6665127016970444  0.7055947072818801
  0.5301683164745152  0.6648361803920847  0.1642592737649573
  0.5300532117923216  0.6647369430546892  0.2607715423649216
  0.5331702654417152  0.4665355617315987  0.6090794054194167
  0.5331719523209701  0.4665116716351026  0.7055806739210224
  0.5301664363817195  0.4648537095565750  0.1642364309218144
  0.5301430418432512  0.4647794897838300  0.2607544196330297
  0.5331644937721256  0.2665148187070760  0.6090686604366866
  0.5331713713623800  0.2665175717317731  0.7055768516705813
  0.5301149968444494  0.2648000951290794  0.1642317855945103
  0.5301780762685698  0.2648244116556381  0.2607367542069130
  0.5331673896854495  0.0664995437078797  0.6090780270205622
  0.9331866024968507  0.8665310522346985  0.7055903115426143
  0.5301092929804379  0.0647590674948547  0.1642427748067323
  0.5301458907566693  0.0648465147940524  0.2607593022035350
  0.3331679739507039  0.8665173129862168  0.6090759916179515
  0.3331614595042087  0.8665196706489124  0.7055857481789596
  0.3300806391920367  0.8647568747270126  0.1642785415387458
  0.3301902210886933  0.8648017816487873  0.2607890237494693
  0.3331864584632381  0.6665270388620237  0.6090768210286175
  0.3331649079004547  0.6665186536986665  0.7055870009998495
  0.3301259677218654  0.6648188409035970  0.1642361921441529
  0.3301063084111839  0.6647624994131041  0.2607518194125282
  0.3331736540425566  0.4665226893387511  0.6090766957170010
  0.3331592835148051  0.4665062226470659  0.7055864700483612
  0.5331717129538154  0.8665253735701567  0.7055920543733144
  0.9331666968923839  0.8665169823465031  0.6090795633794359
 
  0.00000000E+00  0.00000000E+00  0.00000000E+00
  0.00000000E+00  0.00000000E+00  0.00000000E+00
  0.00000000E+00  0.00000000E+00  0.00000000E+00
  0.00000000E+00  0.00000000E+00  0.00000000E+00
  0.00000000E+00  0.00000000E+00  0.00000000E+00
  0.00000000E+00  0.00000000E+00  0.00000000E+00
  0.00000000E+00  0.00000000E+00  0.00000000E+00
  0.00000000E+00  0.00000000E+00  0.00000000E+00
  0.00000000E+00  0.00000000E+00  0.00000000E+00
  0.00000000E+00  0.00000000E+00  0.00000000E+00
  0.00000000E+00  0.00000000E+00  0.00000000E+00
  0.00000000E+00  0.00000000E+00  0.00000000E+00
  0.00000000E+00  0.00000000E+00  0.00000000E+00
  0.00000000E+00  0.00000000E+00  0.00000000E+00
  0.00000000E+00  0.00000000E+00  0.00000000E+00
  0.00000000E+00  0.00000000E+00  0.00000000E+00
  0.00000000E+00  0.00000000E+00  0.00000000E+00
  0.00000000E+00  0.00000000E+00  0.00000000E+00
  0.00000000E+00  0.00000000E+00  0.00000000E+00
  0.00000000E+00  0.00000000E+00  0.00000000E+00
  0.00000000E+00  0.00000000E+00  0.00000000E+00
  0.00000000E+00  0.00000000E+00  0.00000000E+00
  0.00000000E+00  0.00000000E+00  0.00000000E+00
  0.00000000E+00  0.00000000E+00  0.00000000E+00
  0.00000000E+00  0.00000000E+00  0.00000000E+00
  0.00000000E+00  0.00000000E+00  0.00000000E+00
  0.00000000E+00  0.00000000E+00  0.00000000E+00
  0.00000000E+00  0.00000000E+00  0.00000000E+00
  0.00000000E+00  0.00000000E+00  0.00000000E+00
  0.00000000E+00  0.00000000E+00  0.00000000E+00
  0.00000000E+00  0.00000000E+00  0.00000000E+00
  0.00000000E+00  0.00000000E+00  0.00000000E+00
  0.00000000E+00  0.00000000E+00  0.00000000E+00
  0.00000000E+00  0.00000000E+00  0.00000000E+00
  0.00000000E+00  0.00000000E+00  0.00000000E+00
  0.00000000E+00  0.00000000E+00  0.00000000E+00
  0.00000000E+00  0.00000000E+00  0.00000000E+00
  0.00000000E+00  0.00000000E+00  0.00000000E+00
  0.00000000E+00  0.00000000E+00  0.00000000E+00
  0.00000000E+00  0.00000000E+00  0.00000000E+00
  0.00000000E+00  0.00000000E+00  0.00000000E+00
  0.00000000E+00  0.00000000E+00  0.00000000E+00
  0.00000000E+00  0.00000000E+00  0.00000000E+00
  0.00000000E+00  0.00000000E+00  0.00000000E+00
  0.00000000E+00  0.00000000E+00  0.00000000E+00
  0.00000000E+00  0.00000000E+00  0.00000000E+00
  0.00000000E+00  0.00000000E+00  0.00000000E+00
  0.00000000E+00  0.00000000E+00  0.00000000E+00
  0.00000000E+00  0.00000000E+00  0.00000000E+00
  0.00000000E+00  0.00000000E+00  0.00000000E+00
  0.00000000E+00  0.00000000E+00  0.00000000E+00
  0.00000000E+00  0.00000000E+00  0.00000000E+00
  0.00000000E+00  0.00000000E+00  0.00000000E+00
  0.00000000E+00  0.00000000E+00  0.00000000E+00
  0.00000000E+00  0.00000000E+00  0.00000000E+00
  0.00000000E+00  0.00000000E+00  0.00000000E+00
  0.00000000E+00  0.00000000E+00  0.00000000E+00
  0.00000000E+00  0.00000000E+00  0.00000000E+00
  0.00000000E+00  0.00000000E+00  0.00000000E+00
  0.00000000E+00  0.00000000E+00  0.00000000E+00
  0.00000000E+00  0.00000000E+00  0.00000000E+00
  0.00000000E+00  0.00000000E+00  0.00000000E+00
  0.00000000E+00  0.00000000E+00  0.00000000E+00
  0.00000000E+00  0.00000000E+00  0.00000000E+00
  0.00000000E+00  0.00000000E+00  0.00000000E+00
  0.00000000E+00  0.00000000E+00  0.00000000E+00
  0.00000000E+00  0.00000000E+00  0.00000000E+00
  0.00000000E+00  0.00000000E+00  0.00000000E+00
  0.00000000E+00  0.00000000E+00  0.00000000E+00
  0.00000000E+00  0.00000000E+00  0.00000000E+00
  0.00000000E+00  0.00000000E+00  0.00000000E+00
  0.00000000E+00  0.00000000E+00  0.00000000E+00
  0.00000000E+00  0.00000000E+00  0.00000000E+00
  0.00000000E+00  0.00000000E+00  0.00000000E+00
  0.00000000E+00  0.00000000E+00  0.00000000E+00
  0.00000000E+00  0.00000000E+00  0.00000000E+00
  0.00000000E+00  0.00000000E+00  0.00000000E+00
  0.00000000E+00  0.00000000E+00  0.00000000E+00
  0.00000000E+00  0.00000000E+00  0.00000000E+00
  0.00000000E+00  0.00000000E+00  0.00000000E+00
  0.00000000E+00  0.00000000E+00  0.00000000E+00
  0.00000000E+00  0.00000000E+00  0.00000000E+00
  0.00000000E+00  0.00000000E+00  0.00000000E+00
  0.00000000E+00  0.00000000E+00  0.00000000E+00
  0.00000000E+00  0.00000000E+00  0.00000000E+00
  0.00000000E+00  0.00000000E+00  0.00000000E+00
  0.00000000E+00  0.00000000E+00  0.00000000E+00
  0.00000000E+00  0.00000000E+00  0.00000000E+00
  0.00000000E+00  0.00000000E+00  0.00000000E+00
  0.00000000E+00  0.00000000E+00  0.00000000E+00
  0.00000000E+00  0.00000000E+00  0.00000000E+00
  0.00000000E+00  0.00000000E+00  0.00000000E+00
  0.00000000E+00  0.00000000E+00  0.00000000E+00
  0.00000000E+00  0.00000000E+00  0.00000000E+00
  0.00000000E+00  0.00000000E+00  0.00000000E+00
  0.00000000E+00  0.00000000E+00  0.00000000E+00
  0.00000000E+00  0.00000000E+00  0.00000000E+00
  0.00000000E+00  0.00000000E+00  0.00000000E+00
  0.00000000E+00  0.00000000E+00  0.00000000E+00
  0.00000000E+00  0.00000000E+00  0.00000000E+00
  0.00000000E+00  0.00000000E+00  0.00000000E+00
  0.00000000E+00  0.00000000E+00  0.00000000E+00
  0.00000000E+00  0.00000000E+00  0.00000000E+00
  0.00000000E+00  0.00000000E+00  0.00000000E+00
  0.00000000E+00  0.00000000E+00  0.00000000E+00
  0.00000000E+00  0.00000000E+00  0.00000000E+00
  0.00000000E+00  0.00000000E+00  0.00000000E+00
  0.00000000E+00  0.00000000E+00  0.00000000E+00
  0.00000000E+00  0.00000000E+00  0.00000000E+00
  0.00000000E+00  0.00000000E+00  0.00000000E+00
  0.00000000E+00  0.00000000E+00  0.00000000E+00
  0.00000000E+00  0.00000000E+00  0.00000000E+00
  0.00000000E+00  0.00000000E+00  0.00000000E+00
  0.00000000E+00  0.00000000E+00  0.00000000E+00
  0.00000000E+00  0.00000000E+00  0.00000000E+00
  0.00000000E+00  0.00000000E+00  0.00000000E+00
  0.00000000E+00  0.00000000E+00  0.00000000E+00
  0.00000000E+00  0.00000000E+00  0.00000000E+00
  0.00000000E+00  0.00000000E+00  0.00000000E+00
  0.00000000E+00  0.00000000E+00  0.00000000E+00
  0.00000000E+00  0.00000000E+00  0.00000000E+00
  0.00000000E+00  0.00000000E+00  0.00000000E+00
  0.00000000E+00  0.00000000E+00  0.00000000E+00
  0.00000000E+00  0.00000000E+00  0.00000000E+00
  0.00000000E+00  0.00000000E+00  0.00000000E+00
  0.00000000E+00  0.00000000E+00  0.00000000E+00
  0.00000000E+00  0.00000000E+00  0.00000000E+00
  0.00000000E+00  0.00000000E+00  0.00000000E+00
  0.00000000E+00  0.00000000E+00  0.00000000E+00
  0.00000000E+00  0.00000000E+00  0.00000000E+00
  0.00000000E+00  0.00000000E+00  0.00000000E+00
  0.00000000E+00  0.00000000E+00  0.00000000E+00
  0.00000000E+00  0.00000000E+00  0.00000000E+00
  0.00000000E+00  0.00000000E+00  0.00000000E+00
  0.00000000E+00  0.00000000E+00  0.00000000E+00
  0.00000000E+00  0.00000000E+00  0.00000000E+00
  0.00000000E+00  0.00000000E+00  0.00000000E+00
  0.00000000E+00  0.00000000E+00  0.00000000E+00
  0.00000000E+00  0.00000000E+00  0.00000000E+00
  0.00000000E+00  0.00000000E+00  0.00000000E+00
  0.00000000E+00  0.00000000E+00  0.00000000E+00
  0.00000000E+00  0.00000000E+00  0.00000000E+00
  0.00000000E+00  0.00000000E+00  0.00000000E+00
  0.00000000E+00  0.00000000E+00  0.00000000E+00
  0.00000000E+00  0.00000000E+00  0.00000000E+00
  0.00000000E+00  0.00000000E+00  0.00000000E+00
  0.00000000E+00  0.00000000E+00  0.00000000E+00
  0.00000000E+00  0.00000000E+00  0.00000000E+00
  0.00000000E+00  0.00000000E+00  0.00000000E+00
  0.00000000E+00  0.00000000E+00  0.00000000E+00
  0.00000000E+00  0.00000000E+00  0.00000000E+00
  0.00000000E+00  0.00000000E+00  0.00000000E+00
  0.00000000E+00  0.00000000E+00  0.00000000E+00
  0.00000000E+00  0.00000000E+00  0.00000000E+00
  0.00000000E+00  0.00000000E+00  0.00000000E+00
  0.00000000E+00  0.00000000E+00  0.00000000E+00
  0.00000000E+00  0.00000000E+00  0.00000000E+00
  0.00000000E+00  0.00000000E+00  0.00000000E+00
  0.00000000E+00  0.00000000E+00  0.00000000E+00
  0.00000000E+00  0.00000000E+00  0.00000000E+00
  0.00000000E+00  0.00000000E+00  0.00000000E+00
  0.00000000E+00  0.00000000E+00  0.00000000E+00
  0.00000000E+00  0.00000000E+00  0.00000000E+00
  0.00000000E+00  0.00000000E+00  0.00000000E+00
  0.00000000E+00  0.00000000E+00  0.00000000E+00
  0.00000000E+00  0.00000000E+00  0.00000000E+00
  0.00000000E+00  0.00000000E+00  0.00000000E+00
  0.00000000E+00  0.00000000E+00  0.00000000E+00
  0.00000000E+00  0.00000000E+00  0.00000000E+00
  0.00000000E+00  0.00000000E+00  0.00000000E+00
  0.00000000E+00  0.00000000E+00  0.00000000E+00
