 C Cr  H Mo  S 
 1.0000000000000000
    15.9000000000000004    0.0000000000000000    0.0000000000000000
    -7.9500000000000037   13.7698039201725724    0.0000000000000000
     0.0000000000000000    0.0000000000000000   32.3799999999999955
  10   1  10  50 100
Cartesian
  1.4021485536740665 -1.5008450863302976 -0.9508427560786359
  0.1979771678821441 -2.1540232949952900 -0.5680348043510414
  1.9870460947335444 -0.9130729390530031  0.2104631019998781
  1.1371205677690073 -1.2080358629615773  1.3359023429448940
  0.0201658787202912 -1.9808084220861204  0.8438903819869356
 -1.3763246873017625  0.9751222035241626 -1.2069080923402431
 -1.0810957871452533  1.4540304703524587  1.0497690391566941
 -1.9077684065840805  0.7375003000122922  0.1155267631756561
 -0.0612523533606956  2.1261063586121183  0.3145199898564593
 -0.2340092524370376  1.8339054156936132 -1.0679711941844996
  0.0297896790825099 -0.0522859593235748 -0.0140266469568266
 -0.7982270918790946 -2.3787363584138008  1.4390432213603608
 -2.7932914594266900  0.1554913172131089  0.3585081527075950
 -1.7834735570546258  0.5992739743449378 -2.1426211354307432
 -1.1986745464869191  1.4657420204975180  2.1306621331136011
  0.7549230634293423  2.7034719303421113  0.7447691618664136
 -0.4933933927668426 -2.6563274185057977 -1.2408544883234234
  1.7769763276438182 -1.4092586291982989 -1.9682511068929214
  2.9085628781579622 -0.3358109856234277  0.2346687010000982
  1.3259184143708702 -0.9357826314802210  2.3715054725273212
  0.4130807981045185  2.1750541101051404 -1.8735490913833928
  4.7700000000000005  8.2618823521035445 21.2850000000000001
 -3.1800000000000002 11.0158431361380593  7.0949999999999998
 -1.5900000000000003  8.2618823521035445 21.2850000000000001
  3.1800000000000006 11.0158431361380593  7.0949999999999998
 -1.5900000000000003  8.2618823521035445  7.0949999999999998
  3.1800000000000006 11.0158431361380593 21.2850000000000001
  0.0000000000000000  5.5079215680690297  7.0949999999999998
 12.7200000000000006  0.0000000000000000  7.0949999999999998
  1.5900000000000001  2.7539607840345148 21.2850000000000001
 12.7200000000000006  0.0000000000000000 21.2850000000000001
  1.5900000000000001  2.7539607840345148  7.0949999999999998
 -3.1800000000000002 11.0158431361380593 21.2850000000000001
  0.0000000000000000  5.5079215680690297 21.2850000000000001
  4.7700000000000005  8.2618823521035445  7.0949999999999998
  1.5899999999999999  8.2618823521035445  7.0949999999999998
  6.3600000000000003  0.0000000000000000 21.2850000000000001
  6.3600000000000012  5.5079215680690297 21.2850000000000001
  4.7700000000000005  2.7539607840345148  7.0949999999999998
  6.3600000000000012  5.5079215680690297  7.0949999999999998
  4.7700000000000005  2.7539607840345148 21.2850000000000001
  3.1800000000000002  5.5079215680690297  7.0949999999999998
  7.9500000000000011  2.7539607840345148 21.2850000000000001
  3.1800000000000002  5.5079215680690297 21.2850000000000001
  7.9500000000000011  2.7539607840345148  7.0949999999999998
  0.0000000000000000 11.0158431361380593 21.2850000000000001
  1.5899999999999999  8.2618823521035445 21.2850000000000001
  9.5400000000000009  0.0000000000000000 21.2850000000000001
  0.0000000000000000 11.0158431361380593  7.0949999999999998
  9.5400000000000009  0.0000000000000000  7.0949999999999998
  6.3600000000000003  0.0000000000000000  7.0949999999999998
 11.1300000000000008  2.7539607840345148  7.0949999999999998
  3.1800000000000002  0.0000000000000000 21.2850000000000001
  3.1800000000000002  0.0000000000000000  7.0949999999999998
  0.0000000000000000  0.0000000000000000  7.0949999999999998
  6.3600000000000003 11.0158431361380593 21.2850000000000001
  0.0000000000000000  0.0000000000000000 21.2850000000000001
  6.3600000000000003 11.0158431361380593  7.0949999999999998
 -1.5900000000000001  2.7539607840345148  7.0949999999999998
 -1.5900000000000001  2.7539607840345148 21.2850000000000001
  7.9500000000000002  8.2618823521035445 21.2850000000000001
 -3.1800000000000002  5.5079215680690297  7.0949999999999998
 -3.1800000000000002  5.5079215680690297 21.2850000000000001
 -4.7700000000000005  8.2618823521035445  7.0949999999999998
  9.5400000000000009  5.5079215680690297 21.2850000000000001
 -4.7700000000000005  8.2618823521035445 21.2850000000000001
  7.9500000000000002  8.2618823521035445  7.0949999999999998
  9.5400000000000009  5.5079215680690297  7.0949999999999998
 -6.3600000000000003 11.0158431361380593 21.2850000000000001
 -6.3600000000000003 11.0158431361380593  7.0949999999999998
 11.1300000000000008  2.7539607840345148 21.2850000000000001
 14.3100000000000005  0.9179869280115049  5.5000000000000000
  9.5400000000000009  3.6719477120460198 19.6899999999999977
  9.5400000000000009  3.6719477120460198 22.8799999999999990
  9.5400000000000009  9.1798692801150494 22.8799999999999990
  9.5400000000000009  9.1798692801150494 19.6899999999999977
  9.5400000000000009  3.6719477120460198  5.5000000000000000
  9.5400000000000009  3.6719477120460198  8.6899999999999995
 11.1300000000000008  6.4259084960805346  8.6899999999999995
 11.1300000000000008  0.9179869280115049 19.6899999999999977
 11.1300000000000008  0.9179869280115049 22.8799999999999990
 14.3100000000000005  0.9179869280115049 22.8799999999999990
  7.9500000000000002 11.9338300641495643  5.5000000000000000
 11.1300000000000008  0.9179869280115049  5.5000000000000000
 14.3100000000000005  0.9179869280115049 19.6899999999999977
 11.1300000000000008  0.9179869280115049  8.6899999999999995
 12.7200000000000006  3.6719477120460198  5.5000000000000000
 12.7200000000000006  3.6719477120460198 22.8799999999999990
  7.9500000000000002 11.9338300641495643  8.6899999999999995
  7.9500000000000011  6.4259084960805346  8.6899999999999995
  7.9500000000000011  6.4259084960805346  5.5000000000000000
  4.7700000000000005 11.9338300641495643  5.5000000000000000
  4.7700000000000005 11.9338300641495643 22.8799999999999990
  4.7700000000000005 11.9338300641495643  8.6899999999999995
 11.1300000000000008  6.4259084960805346  5.5000000000000000
  4.7700000000000005 11.9338300641495643 19.6899999999999977
  6.3600000000000003  9.1798692801150494 19.6899999999999977
  6.3600000000000003  9.1798692801150494 22.8799999999999990
 11.1300000000000008  6.4259084960805346 22.8799999999999990
  6.3600000000000003  9.1798692801150494  5.5000000000000000
 11.1300000000000008  6.4259084960805346 19.6899999999999977
  6.3600000000000003  9.1798692801150494  8.6899999999999995
 12.7200000000000006  3.6719477120460198 19.6899999999999977
 12.7200000000000006  3.6719477120460198  8.6899999999999995
  7.9500000000000011  6.4259084960805346 19.6899999999999977
  7.9500000000000011  6.4259084960805346 22.8799999999999990
  9.5400000000000009  9.1798692801150494  8.6899999999999995
 14.3100000000000005  0.9179869280115049  8.6899999999999995
  9.5400000000000009  9.1798692801150494  5.5000000000000000
  1.5900000000000001 11.9338300641495643 19.6899999999999977
  7.9500000000000002  0.9179869280115049 22.8799999999999990
  1.5900000000000001 11.9338300641495643  5.5000000000000000
  3.1800000000000002  3.6719477120460198  5.5000000000000000
  3.1800000000000002  3.6719477120460198  8.6899999999999995
  4.7700000000000005  0.9179869280115049 19.6899999999999977
  4.7700000000000005  0.9179869280115049 22.8799999999999990
  4.7700000000000005  0.9179869280115049  5.5000000000000000
  4.7700000000000005  0.9179869280115049  8.6899999999999995
 -4.7700000000000005 11.9338300641495643 19.6899999999999977
 -4.7700000000000005 11.9338300641495643 22.8799999999999990
 -4.7700000000000005 11.9338300641495643  5.5000000000000000
 -4.7700000000000005 11.9338300641495643  8.6899999999999995
 -3.1800000000000006  9.1798692801150494 19.6899999999999977
 -3.1800000000000006  9.1798692801150494 22.8799999999999990
  3.1800000000000002  3.6719477120460198 22.8799999999999990
 -3.1800000000000006  9.1798692801150494  5.5000000000000000
 -1.5900000000000001  6.4259084960805346 19.6899999999999977
 -1.5900000000000001  6.4259084960805346 22.8799999999999990
 -1.5900000000000001  6.4259084960805346  5.5000000000000000
 -1.5900000000000001  6.4259084960805346  8.6899999999999995
  0.0000000000000000  3.6719477120460198 19.6899999999999977
  0.0000000000000000  3.6719477120460198 22.8799999999999990
  0.0000000000000000  3.6719477120460198  5.5000000000000000
  0.0000000000000000  3.6719477120460198  8.6899999999999995
  1.5900000000000001  0.9179869280115049 19.6899999999999977
  1.5900000000000001  0.9179869280115049 22.8799999999999990
  1.5900000000000001  0.9179869280115049  5.5000000000000000
  1.5900000000000001  0.9179869280115049  8.6899999999999995
 -3.1800000000000006  9.1798692801150494  8.6899999999999995
  3.1800000000000002  3.6719477120460198 19.6899999999999977
  1.5900000000000001  6.4259084960805346  8.6899999999999995
  1.5900000000000001  6.4259084960805346  5.5000000000000000
  1.5900000000000001 11.9338300641495643  8.6899999999999995
  3.1799999999999997  9.1798692801150494 19.6899999999999977
  3.1799999999999997  9.1798692801150494 22.8799999999999990
  3.1799999999999997  9.1798692801150494  5.5000000000000000
  3.1799999999999997  9.1798692801150494  8.6899999999999995
  4.7700000000000005  6.4259084960805346 19.6899999999999977
  4.7700000000000005  6.4259084960805346 22.8799999999999990
  4.7700000000000005  6.4259084960805346  5.5000000000000000
  4.7700000000000005  6.4259084960805346  8.6899999999999995
  6.3600000000000003  3.6719477120460198 19.6899999999999977
  6.3600000000000003  3.6719477120460198 22.8799999999999990
  6.3600000000000003  3.6719477120460198  5.5000000000000000
  6.3600000000000003  3.6719477120460198  8.6899999999999995
  7.9500000000000002  0.9179869280115049 19.6899999999999977
  7.9500000000000002 11.9338300641495643 22.8799999999999990
  7.9500000000000002  0.9179869280115049  5.5000000000000000
  7.9500000000000002  0.9179869280115049  8.6899999999999995
 -1.5900000000000001 11.9338300641495643 19.6899999999999977
 -1.5900000000000001 11.9338300641495643 22.8799999999999990
 -1.5900000000000001 11.9338300641495643  5.5000000000000000
 -1.5900000000000001 11.9338300641495643  8.6899999999999995
 -0.0000000000000002  9.1798692801150494 19.6899999999999977
 -0.0000000000000002  9.1798692801150494 22.8799999999999990
 -0.0000000000000002  9.1798692801150494  5.5000000000000000
 -0.0000000000000002  9.1798692801150494  8.6899999999999995
  1.5900000000000001  6.4259084960805346 19.6899999999999977
  1.5900000000000001  6.4259084960805346 22.8799999999999990
  1.5900000000000001 11.9338300641495643 22.8799999999999990
  7.9500000000000002 11.9338300641495643 19.6899999999999977
