 C Cr  H Mo  S                          
   1.00000000000000     
     9.5709464550000014    0.0000000000000000    0.0000000000000000
    -6.3806280268000020   11.0515787236000005    0.0000000000000000
     0.0000000000000000    0.0000000000000000   34.8802625070458063
   C    Cr   H    Mo   S 
    10     1    10    24    48
Direct
  0.9431765581097341  0.9426971176019968  0.4701444303867991
  0.0559069025569202  0.9789821904355767  0.5008435968907704
  0.8987137056293970  0.0328374505267879  0.4649028790262019
  0.9853035503166111  0.1273190505199286  0.4924983087457800
  0.0834996180414405  0.0935094341805080  0.5149783747637880
  0.7180025192603553  0.8247136107291280  0.5625139425367114
  0.7216007213759101  0.0069179283589860  0.5703137589064035
  0.7957376735876409  0.9388238935102801  0.5827165981880357
  0.5998790684908085  0.9361876652843347  0.5430196528254859
  0.5970738639507202  0.8244216026340776  0.5379834638225482
  0.8377231310085935  0.9683497453716771  0.5234109300881203
  0.1661612697769090  0.1463873244412255  0.5378127196126921
  0.8900669078246610  0.9668454209442199  0.6042138405790127
  0.5274486488951212  0.9653786822224495  0.5271434397082669
  0.7552814450976738  0.0980300353236475  0.5794496732682379
  0.7427526164466324  0.7508965579430026  0.5660492318118435
  0.1090825920012583  0.9274233545655428  0.5121718219457482
  0.8930830603798824  0.8574610042548215  0.4546440396657753
  0.8122732734900820  0.0294776564189081  0.4439944441489617
  0.9809648076743355  0.2105261631722985  0.4951739747833686
  0.5190491668425812  0.7526014649218264  0.5183256701095547
  0.5558549373644690  0.0838325090095406  0.2500697536068371
  0.5558496554073353  0.3338239991607529  0.2500639602825286
  0.4441565082412258  0.4161692900803634  0.7497689012252601
  0.5558498301220060  0.5838225529334817  0.2500646482876697
  0.4441903969516888  0.6662016025839675  0.7497425930195448
  0.5558582735185125  0.8338298590673514  0.2500709404108412
  0.4441912801741502  0.9161462329192824  0.7497139808609939
  0.8891960403011038  0.3338464318183453  0.2500608749682804
  0.7774916303462859  0.1661378488604119  0.7497274178914421
  0.7774937608510353  0.4161569450770639  0.7497797258150490
  0.8891926802643849  0.5838423729650454  0.2500595710391484
  0.7774856577703440  0.6661667740880283  0.7497471513135683
  0.8892053293884089  0.8338487435498753  0.2500686404720290
  0.7774514738078792  0.9161414167289474  0.7496959504159625
  0.1107955318497901  0.9161549708272752  0.7497416455696173
  0.8892144832024242  0.0838511815368086  0.2500688059643442
  0.2225095863652110  0.8338533860118357  0.2500693681747106
  0.4441681080118194  0.1661434935024751  0.7497397497056590
  0.2225082383402817  0.5838466258840322  0.2500630346444525
  0.1108252168594671  0.4161862452004116  0.7497869154638713
  0.2225058679276839  0.3338413907521206  0.2500643624072458
  0.2225089356640947  0.0838523918487417  0.2500713714429765
  0.1107864082351985  0.1661579747413887  0.7497499042122910
  0.1108235103366873  0.6661785356405768  0.7497771666899690
  0.7774804670707335  0.1663970855294023  0.2946347272966033
  0.8891149894630214  0.0835349313079589  0.7942992751229574
  0.7774656880451973  0.1663802369839422  0.2054928645950691
  0.8892374906467400  0.0836222454058319  0.7051317774494117
  0.2225068503607785  0.0836164986538740  0.7051783998616540
  0.1108064684741445  0.1663939899650781  0.2054916262111081
  0.7774654966933725  0.4163840095783006  0.2946264202312239
  0.8891382581779956  0.3335302662030598  0.7943447838141816
  0.1108153414400304  0.6664113444110101  0.2054891427271814
  0.5558404734510933  0.8335738365148281  0.7051219426841862
  0.8892576556443790  0.3336788948572917  0.7052055194973119
  0.2225229534585314  0.0835968384858992  0.7943180039170080
  0.1108071334140344  0.1664047610676382  0.2946408796828434
  0.7774644985056800  0.6663769733779048  0.2946300654269183
  0.8891724730049233  0.5836414381027480  0.7943495723509596
  0.7774693585794740  0.6663977688645895  0.2054903572220223
  0.8892181520299538  0.5835980548794336  0.7052106868213607
  0.7774805941279942  0.9163951842102861  0.2946401414673389
  0.8891505451457979  0.8336464564157726  0.7943027090418446
  0.7774613647266635  0.4163835484067216  0.2054865483648725
  0.4441374870568462  0.9163805010912367  0.2054967621159337
  0.4441373303397129  0.9163809727246014  0.2946366361927342
  0.2225068061582052  0.5836200429760824  0.7052092243757374
  0.2226192272389061  0.5836798044417310  0.7943503674332669
  0.1108012942525875  0.9164010038063138  0.2946402947805693
  0.2226157735246092  0.8336871648112891  0.7943220623227402
  0.1108102185407957  0.9164069032264336  0.2054947780512018
  0.2224860282546538  0.8335624215393581  0.7051793852086812
  0.1107889782247341  0.6663868739939434  0.2946304769062874
  0.7774740448067995  0.9163928706552521  0.2054968472895986
  0.4441387168814836  0.1663851597091312  0.2946358380510244
  0.5558711923929672  0.0835672073116091  0.7943033909645233
  0.4441236482944302  0.1663681010921273  0.2054932653705816
  0.5558851090718800  0.0836145009461845  0.7051531224882109
  0.4441283979715122  0.4163679830273758  0.2946304663353023
  0.5558195941744648  0.3335598721714253  0.7943420328506506
  0.4441279742276006  0.4163734802702277  0.2054892481063777
  0.5559126599304028  0.3336548387901653  0.7052050695428481
  0.2225355773345704  0.3336693515055685  0.7052107261110940
  0.1108094981461994  0.4163991868239735  0.2054871331605948
  0.4441282293275401  0.6663652176011248  0.2946315789714076
  0.5558858493044789  0.5836562111827011  0.7943319903099009
  0.4441419558623724  0.6663874979953716  0.2054925109366696
  0.5558544716575207  0.5836027613863727  0.7051854225291789
  0.2225185705481382  0.3335820675506626  0.7943479801439246
  0.1107974453069050  0.4163925911512921  0.2946304266838274
  0.5559310686208505  0.8336623450865559  0.7943005092919063
  0.8892045163843614  0.8335931641031634  0.7051395370525428
 
  0.00000000E+00  0.00000000E+00  0.00000000E+00
  0.00000000E+00  0.00000000E+00  0.00000000E+00
  0.00000000E+00  0.00000000E+00  0.00000000E+00
  0.00000000E+00  0.00000000E+00  0.00000000E+00
  0.00000000E+00  0.00000000E+00  0.00000000E+00
  0.00000000E+00  0.00000000E+00  0.00000000E+00
  0.00000000E+00  0.00000000E+00  0.00000000E+00
  0.00000000E+00  0.00000000E+00  0.00000000E+00
  0.00000000E+00  0.00000000E+00  0.00000000E+00
  0.00000000E+00  0.00000000E+00  0.00000000E+00
  0.00000000E+00  0.00000000E+00  0.00000000E+00
  0.00000000E+00  0.00000000E+00  0.00000000E+00
  0.00000000E+00  0.00000000E+00  0.00000000E+00
  0.00000000E+00  0.00000000E+00  0.00000000E+00
  0.00000000E+00  0.00000000E+00  0.00000000E+00
  0.00000000E+00  0.00000000E+00  0.00000000E+00
  0.00000000E+00  0.00000000E+00  0.00000000E+00
  0.00000000E+00  0.00000000E+00  0.00000000E+00
  0.00000000E+00  0.00000000E+00  0.00000000E+00
  0.00000000E+00  0.00000000E+00  0.00000000E+00
  0.00000000E+00  0.00000000E+00  0.00000000E+00
  0.00000000E+00  0.00000000E+00  0.00000000E+00
  0.00000000E+00  0.00000000E+00  0.00000000E+00
  0.00000000E+00  0.00000000E+00  0.00000000E+00
  0.00000000E+00  0.00000000E+00  0.00000000E+00
  0.00000000E+00  0.00000000E+00  0.00000000E+00
  0.00000000E+00  0.00000000E+00  0.00000000E+00
  0.00000000E+00  0.00000000E+00  0.00000000E+00
  0.00000000E+00  0.00000000E+00  0.00000000E+00
  0.00000000E+00  0.00000000E+00  0.00000000E+00
  0.00000000E+00  0.00000000E+00  0.00000000E+00
  0.00000000E+00  0.00000000E+00  0.00000000E+00
  0.00000000E+00  0.00000000E+00  0.00000000E+00
  0.00000000E+00  0.00000000E+00  0.00000000E+00
  0.00000000E+00  0.00000000E+00  0.00000000E+00
  0.00000000E+00  0.00000000E+00  0.00000000E+00
  0.00000000E+00  0.00000000E+00  0.00000000E+00
  0.00000000E+00  0.00000000E+00  0.00000000E+00
  0.00000000E+00  0.00000000E+00  0.00000000E+00
  0.00000000E+00  0.00000000E+00  0.00000000E+00
  0.00000000E+00  0.00000000E+00  0.00000000E+00
  0.00000000E+00  0.00000000E+00  0.00000000E+00
  0.00000000E+00  0.00000000E+00  0.00000000E+00
  0.00000000E+00  0.00000000E+00  0.00000000E+00
  0.00000000E+00  0.00000000E+00  0.00000000E+00
  0.00000000E+00  0.00000000E+00  0.00000000E+00
  0.00000000E+00  0.00000000E+00  0.00000000E+00
  0.00000000E+00  0.00000000E+00  0.00000000E+00
  0.00000000E+00  0.00000000E+00  0.00000000E+00
  0.00000000E+00  0.00000000E+00  0.00000000E+00
  0.00000000E+00  0.00000000E+00  0.00000000E+00
  0.00000000E+00  0.00000000E+00  0.00000000E+00
  0.00000000E+00  0.00000000E+00  0.00000000E+00
  0.00000000E+00  0.00000000E+00  0.00000000E+00
  0.00000000E+00  0.00000000E+00  0.00000000E+00
  0.00000000E+00  0.00000000E+00  0.00000000E+00
  0.00000000E+00  0.00000000E+00  0.00000000E+00
  0.00000000E+00  0.00000000E+00  0.00000000E+00
  0.00000000E+00  0.00000000E+00  0.00000000E+00
  0.00000000E+00  0.00000000E+00  0.00000000E+00
  0.00000000E+00  0.00000000E+00  0.00000000E+00
  0.00000000E+00  0.00000000E+00  0.00000000E+00
  0.00000000E+00  0.00000000E+00  0.00000000E+00
  0.00000000E+00  0.00000000E+00  0.00000000E+00
  0.00000000E+00  0.00000000E+00  0.00000000E+00
  0.00000000E+00  0.00000000E+00  0.00000000E+00
  0.00000000E+00  0.00000000E+00  0.00000000E+00
  0.00000000E+00  0.00000000E+00  0.00000000E+00
  0.00000000E+00  0.00000000E+00  0.00000000E+00
  0.00000000E+00  0.00000000E+00  0.00000000E+00
  0.00000000E+00  0.00000000E+00  0.00000000E+00
  0.00000000E+00  0.00000000E+00  0.00000000E+00
  0.00000000E+00  0.00000000E+00  0.00000000E+00
  0.00000000E+00  0.00000000E+00  0.00000000E+00
  0.00000000E+00  0.00000000E+00  0.00000000E+00
  0.00000000E+00  0.00000000E+00  0.00000000E+00
  0.00000000E+00  0.00000000E+00  0.00000000E+00
  0.00000000E+00  0.00000000E+00  0.00000000E+00
  0.00000000E+00  0.00000000E+00  0.00000000E+00
  0.00000000E+00  0.00000000E+00  0.00000000E+00
  0.00000000E+00  0.00000000E+00  0.00000000E+00
  0.00000000E+00  0.00000000E+00  0.00000000E+00
  0.00000000E+00  0.00000000E+00  0.00000000E+00
  0.00000000E+00  0.00000000E+00  0.00000000E+00
  0.00000000E+00  0.00000000E+00  0.00000000E+00
  0.00000000E+00  0.00000000E+00  0.00000000E+00
  0.00000000E+00  0.00000000E+00  0.00000000E+00
  0.00000000E+00  0.00000000E+00  0.00000000E+00
  0.00000000E+00  0.00000000E+00  0.00000000E+00
  0.00000000E+00  0.00000000E+00  0.00000000E+00
  0.00000000E+00  0.00000000E+00  0.00000000E+00
  0.00000000E+00  0.00000000E+00  0.00000000E+00
  0.00000000E+00  0.00000000E+00  0.00000000E+00
