 C Cr  H Mo  S                          
   1.00000000000000     
     9.5709464550000014    0.0000000000000000    0.0000000000000000
    -6.3806280268000020   11.0515787236000005    0.0000000000000000
     0.0000000000000000    0.0000000000000000   34.8802625070458063
   C    Cr   H    Mo   S 
    10     1    10    24    48
Direct
  0.5745255829638827  0.6305695949526605  0.9496505449947948
  0.4507225505008052  0.5850592046473885  0.9778863189581607
  0.6419700387101767  0.5531876812001679  0.9480707762838146
  0.5586390532689748  0.4576188941372967  0.9756403670116042
  0.4395213027584166  0.4780486040173195  0.9942414394073890
  0.7624980012910278  0.7700580077558739  0.0436907311280687
  0.7884141655524922  0.6017375468109447  0.0564450576832192
  0.6935293163633507  0.6577165582383214  0.0648129120906111
  0.9140624995309571  0.6786041958012391  0.0307608616095866
  0.8986118705470645  0.7816508510762512  0.0227397155052939
  0.6744998059225344  0.6214152333449305  0.0058068925854870
  0.3547412574026895  0.4214800180931321  0.0162445401391463
  0.5913345958249255  0.6232991468333475  0.0843211387885679
  0.0012472251492071  0.6584123102585656  0.0177431142873042
  0.7665578592751562  0.5149205817189946  0.0672828204828244
  0.7213258547337337  0.8355372410355394  0.0442005949568472
  0.3807994110693593  0.6269501009307086  0.9865831677787538
  0.6162923354974408  0.7139318496455149  0.9334824185823600
  0.7402789185077178  0.5652658844000803  0.9295065231474828
  0.5784144061791985  0.3818924433513572  0.9806231254272694
  0.9743544244412669  0.8547285993609982  0.0032010829620955
  0.5559471340774925  0.0838417574171056  0.2499979265198548
  0.5559555046089901  0.3338455062797820  0.2499927490289023
  0.4440522377164770  0.4161586130157109  0.7500082490243835
  0.5559933594256191  0.5838642571348195  0.2499905671331123
  0.4440535392033936  0.6661410041529168  0.7500072230572927
  0.5559675968467891  0.8338535771509887  0.2499923773913737
  0.4440527237890683  0.9161546758035922  0.7500032376747123
  0.8892952263442685  0.3338635649227351  0.2499940098115095
  0.7773978516625188  0.1661379805310653  0.7500002381632226
  0.7773832043869296  0.4161271847126802  0.7500032471961734
  0.8892899838234092  0.5838804872692733  0.2499869605225075
  0.7773705877654392  0.6661256982463964  0.7500056867306223
  0.8892928896381804  0.8338461110852906  0.2499872836676045
  0.7773964085723035  0.9161384507902135  0.7500022552475312
  0.1107035768830214  0.9161420045460974  0.7500017685489904
  0.8892948180217878  0.0838492327057072  0.2499961337887830
  0.2225922580562121  0.8338649506646942  0.2499950703583536
  0.4440548842868521  0.1661622629068854  0.7500022524493630
  0.2226029303501206  0.5838753462598346  0.2499947773747878
  0.1107111386281801  0.4161364086183632  0.7500019317980651
  0.2226078050769858  0.3338653201659601  0.2499964939355583
  0.2225917408847592  0.0838478056878834  0.2499983789655892
  0.1107127938705140  0.1661513394135409  0.7500005287087278
  0.1107057847489161  0.6661341537650098  0.7500027949332240
  0.7775632215508478  0.1664002103854043  0.2945704563484114
  0.8891094122363141  0.0836024664626481  0.7945597353633006
  0.7775513943610217  0.1663853824123355  0.2054384358254689
  0.8891000836893762  0.0835926124835328  0.7054269587847151
  0.2224408137346970  0.0836025755033216  0.7054284140587945
  0.1108936069434065  0.1663928735677381  0.2054372412619436
  0.7775653084518230  0.4164107377204641  0.2945657131628536
  0.8891011066424239  0.3335911403059891  0.7945617054167791
  0.1108935372624801  0.6664179185824934  0.2054286363801245
  0.5557650560090881  0.8335976897807990  0.7054310413875140
  0.8890984441947017  0.3335924023887631  0.7054275626008767
  0.2224443339507975  0.0836148439527852  0.7945593527705327
  0.1108973870054127  0.1664068202493395  0.2945718689190029
  0.7775715241731832  0.6664064541934721  0.2945682464965598
  0.8890793714158828  0.5835820059259184  0.7945680098067478
  0.7775595932026907  0.6664056555749787  0.2054068654833360
  0.8890893368704822  0.5835873025031557  0.7054319300284922
  0.7775659411483193  0.9163911245255474  0.2945686860603220
  0.8890872948264245  0.8335873426194044  0.7945635581437316
  0.7775591584094289  0.4164111158359893  0.2054287033907359
  0.4442219194028934  0.9163924681252300  0.2054347462719362
  0.4442285511579971  0.9163903946845723  0.2945706979592457
  0.2224428038860014  0.5835987541185503  0.7054299707048632
  0.2224394105080754  0.5835933846237307  0.7945637027123319
  0.1108818839294592  0.9163976979714512  0.2945715416499242
  0.2224382799819326  0.8336033922204856  0.7945590321728632
  0.1108873089771942  0.9163967269872012  0.2054285609471102
  0.2224379663073079  0.8335982684032277  0.7054297633150907
  0.1108875708781764  0.6664090979402989  0.2945692282120854
  0.7775650001947978  0.9163882110929443  0.2054268310148125
  0.4442298478941183  0.1663960246954713  0.2945712880311858
  0.5557768114286105  0.0836158105117407  0.7945603511464211
  0.4442142102307310  0.1663791620500462  0.2054371060584355
  0.5557669954135789  0.0836049331530615  0.7054277936553610
  0.4442448896491747  0.4164042467606073  0.2945667449489895
  0.5557688442442026  0.3336115756926222  0.7945683914187170
  0.4442488964771477  0.4164101347278001  0.2054296510951315
  0.5557637493950025  0.3336085581511807  0.7054288374698502
  0.2224497760666903  0.3336063266088322  0.7054280774640130
  0.1109027996415263  0.4164124994195718  0.2054369797827200
  0.4442428080594684  0.6664004681828943  0.2945656977900684
  0.5557684729254342  0.5835999484864121  0.7945792569939432
  0.4442553177545638  0.6664019555491913  0.2054250491941477
  0.5557620102886315  0.5835982764727333  0.7054301088151975
  0.2224441209370881  0.3336061349442319  0.7945653413978476
  0.1108996031032517  0.4164135550680129  0.2945697067449581
  0.5557759290115830  0.8335997957897532  0.7945643601901822
  0.8890899788296807  0.8335847502702386  0.7054303128708262
 
  0.00000000E+00  0.00000000E+00  0.00000000E+00
  0.00000000E+00  0.00000000E+00  0.00000000E+00
  0.00000000E+00  0.00000000E+00  0.00000000E+00
  0.00000000E+00  0.00000000E+00  0.00000000E+00
  0.00000000E+00  0.00000000E+00  0.00000000E+00
  0.00000000E+00  0.00000000E+00  0.00000000E+00
  0.00000000E+00  0.00000000E+00  0.00000000E+00
  0.00000000E+00  0.00000000E+00  0.00000000E+00
  0.00000000E+00  0.00000000E+00  0.00000000E+00
  0.00000000E+00  0.00000000E+00  0.00000000E+00
  0.00000000E+00  0.00000000E+00  0.00000000E+00
  0.00000000E+00  0.00000000E+00  0.00000000E+00
  0.00000000E+00  0.00000000E+00  0.00000000E+00
  0.00000000E+00  0.00000000E+00  0.00000000E+00
  0.00000000E+00  0.00000000E+00  0.00000000E+00
  0.00000000E+00  0.00000000E+00  0.00000000E+00
  0.00000000E+00  0.00000000E+00  0.00000000E+00
  0.00000000E+00  0.00000000E+00  0.00000000E+00
  0.00000000E+00  0.00000000E+00  0.00000000E+00
  0.00000000E+00  0.00000000E+00  0.00000000E+00
  0.00000000E+00  0.00000000E+00  0.00000000E+00
  0.00000000E+00  0.00000000E+00  0.00000000E+00
  0.00000000E+00  0.00000000E+00  0.00000000E+00
  0.00000000E+00  0.00000000E+00  0.00000000E+00
  0.00000000E+00  0.00000000E+00  0.00000000E+00
  0.00000000E+00  0.00000000E+00  0.00000000E+00
  0.00000000E+00  0.00000000E+00  0.00000000E+00
  0.00000000E+00  0.00000000E+00  0.00000000E+00
  0.00000000E+00  0.00000000E+00  0.00000000E+00
  0.00000000E+00  0.00000000E+00  0.00000000E+00
  0.00000000E+00  0.00000000E+00  0.00000000E+00
  0.00000000E+00  0.00000000E+00  0.00000000E+00
  0.00000000E+00  0.00000000E+00  0.00000000E+00
  0.00000000E+00  0.00000000E+00  0.00000000E+00
  0.00000000E+00  0.00000000E+00  0.00000000E+00
  0.00000000E+00  0.00000000E+00  0.00000000E+00
  0.00000000E+00  0.00000000E+00  0.00000000E+00
  0.00000000E+00  0.00000000E+00  0.00000000E+00
  0.00000000E+00  0.00000000E+00  0.00000000E+00
  0.00000000E+00  0.00000000E+00  0.00000000E+00
  0.00000000E+00  0.00000000E+00  0.00000000E+00
  0.00000000E+00  0.00000000E+00  0.00000000E+00
  0.00000000E+00  0.00000000E+00  0.00000000E+00
  0.00000000E+00  0.00000000E+00  0.00000000E+00
  0.00000000E+00  0.00000000E+00  0.00000000E+00
  0.00000000E+00  0.00000000E+00  0.00000000E+00
  0.00000000E+00  0.00000000E+00  0.00000000E+00
  0.00000000E+00  0.00000000E+00  0.00000000E+00
  0.00000000E+00  0.00000000E+00  0.00000000E+00
  0.00000000E+00  0.00000000E+00  0.00000000E+00
  0.00000000E+00  0.00000000E+00  0.00000000E+00
  0.00000000E+00  0.00000000E+00  0.00000000E+00
  0.00000000E+00  0.00000000E+00  0.00000000E+00
  0.00000000E+00  0.00000000E+00  0.00000000E+00
  0.00000000E+00  0.00000000E+00  0.00000000E+00
  0.00000000E+00  0.00000000E+00  0.00000000E+00
  0.00000000E+00  0.00000000E+00  0.00000000E+00
  0.00000000E+00  0.00000000E+00  0.00000000E+00
  0.00000000E+00  0.00000000E+00  0.00000000E+00
  0.00000000E+00  0.00000000E+00  0.00000000E+00
  0.00000000E+00  0.00000000E+00  0.00000000E+00
  0.00000000E+00  0.00000000E+00  0.00000000E+00
  0.00000000E+00  0.00000000E+00  0.00000000E+00
  0.00000000E+00  0.00000000E+00  0.00000000E+00
  0.00000000E+00  0.00000000E+00  0.00000000E+00
  0.00000000E+00  0.00000000E+00  0.00000000E+00
  0.00000000E+00  0.00000000E+00  0.00000000E+00
  0.00000000E+00  0.00000000E+00  0.00000000E+00
  0.00000000E+00  0.00000000E+00  0.00000000E+00
  0.00000000E+00  0.00000000E+00  0.00000000E+00
  0.00000000E+00  0.00000000E+00  0.00000000E+00
  0.00000000E+00  0.00000000E+00  0.00000000E+00
  0.00000000E+00  0.00000000E+00  0.00000000E+00
  0.00000000E+00  0.00000000E+00  0.00000000E+00
  0.00000000E+00  0.00000000E+00  0.00000000E+00
  0.00000000E+00  0.00000000E+00  0.00000000E+00
  0.00000000E+00  0.00000000E+00  0.00000000E+00
  0.00000000E+00  0.00000000E+00  0.00000000E+00
  0.00000000E+00  0.00000000E+00  0.00000000E+00
  0.00000000E+00  0.00000000E+00  0.00000000E+00
  0.00000000E+00  0.00000000E+00  0.00000000E+00
  0.00000000E+00  0.00000000E+00  0.00000000E+00
  0.00000000E+00  0.00000000E+00  0.00000000E+00
  0.00000000E+00  0.00000000E+00  0.00000000E+00
  0.00000000E+00  0.00000000E+00  0.00000000E+00
  0.00000000E+00  0.00000000E+00  0.00000000E+00
  0.00000000E+00  0.00000000E+00  0.00000000E+00
  0.00000000E+00  0.00000000E+00  0.00000000E+00
  0.00000000E+00  0.00000000E+00  0.00000000E+00
  0.00000000E+00  0.00000000E+00  0.00000000E+00
  0.00000000E+00  0.00000000E+00  0.00000000E+00
  0.00000000E+00  0.00000000E+00  0.00000000E+00
  0.00000000E+00  0.00000000E+00  0.00000000E+00
