 C Cr  H Mo  S 
 1.0000000000000000
    15.9000000000000004    0.0000000000000000    0.0000000000000000
    -7.9500000000000037   13.7698039201725724    0.0000000000000000
     0.0000000000000000    0.0000000000000000   32.3799999999999955
  10   1  10  50 100
Selective dynamics
Cartesian
  5.3887460126278723  6.8420527652059446 15.3871894672984748   T   T   T
  5.6814162156882162  5.4540404228453490 15.2824120067642824   T   T   T
  4.1008186677377738  6.9892004499259803 15.9836819147156497   T   T   T
  3.5839934576993775  5.6728500682289571 16.2595503395134244   T   T   T
  4.5736594195686733  4.7179307726635535 15.8173610156670659   T   T   T
  4.0926306772723375  5.6421002111247969 12.1014481608208815   T   T   T
  2.1287992659002062  5.0062403686150594 13.1729673420476967   T   T   T
  3.3671358420716269  4.5113800770151489 12.6332937824938814   T   T   T
  2.0898889617387368  6.4170393315643315 12.9717459021320991   T   T   T
  3.2914152039065008  6.8135404743105168 12.3193428485255936   T   T   T
  3.8358170752500325  5.8378836382441248 14.1874507760302144   T   T   T
  4.5025256488866514  3.6356850259431632 15.8948512048843327   T   T   T
  3.6807063650926830  3.4710098183882794 12.5982403819388917   T   T   T
  5.0563485253754781  5.6112412025444156 11.5985698222888196   T   T   T
  1.3634860962667683  4.4129374850712368 13.6675168809040848   T   T   T
  1.3076294528698948  7.0865848369572459 13.3244306642060657   T   T   T
  6.5723141550384661  5.0255085341132313 14.8289251891282969   T   T   T
  6.0136576230083261  7.6508714931454174 15.0139583912586634   T   T   T
  3.5975386315365703  7.9324057207874388 16.1838905014786860   T   T   T
  2.6413350287679336  5.4433258235061759 16.7504209929277401   T   T   T
  3.5670945042426627  7.8349739338204376 12.0649055776242733   T   T   T
  4.7700000000000005  8.2618823521035445 21.2850000000000001   T   T   T
 -3.1800000000000002 11.0158431361380593  7.0949999999999998   F   F   F
 -1.5900000000000003  8.2618823521035445 21.2850000000000001   T   T   T
  3.1800000000000006 11.0158431361380593  7.0949999999999998   F   F   F
 -1.5900000000000003  8.2618823521035445  7.0949999999999998   F   F   F
  3.1800000000000006 11.0158431361380593 21.2850000000000001   T   T   T
  0.0000000000000000  5.5079215680690297  7.0949999999999998   F   F   F
 12.7200000000000006  0.0000000000000000  7.0949999999999998   F   F   F
  1.5900000000000001  2.7539607840345148 21.2850000000000001   T   T   T
 12.7200000000000006  0.0000000000000000 21.2850000000000001   T   T   T
  1.5900000000000001  2.7539607840345148  7.0949999999999998   F   F   F
 -3.1800000000000002 11.0158431361380593 21.2850000000000001   T   T   T
  0.0000000000000000  5.5079215680690297 21.2850000000000001   T   T   T
  4.7700000000000005  8.2618823521035445  7.0949999999999998   F   F   F
  1.5899999999999999  8.2618823521035445  7.0949999999999998   F   F   F
  6.3600000000000003  0.0000000000000000 21.2850000000000001   T   T   T
  6.3600000000000012  5.5079215680690297 21.2850000000000001   T   T   T
  4.7700000000000005  2.7539607840345148  7.0949999999999998   F   F   F
  6.3600000000000012  5.5079215680690297  7.0949999999999998   F   F   F
  4.7700000000000005  2.7539607840345148 21.2850000000000001   T   T   T
  3.1800000000000002  5.5079215680690297  7.0949999999999998   F   F   F
  7.9500000000000011  2.7539607840345148 21.2850000000000001   T   T   T
  3.1800000000000002  5.5079215680690297 21.2850000000000001   T   T   T
  7.9500000000000011  2.7539607840345148  7.0949999999999998   F   F   F
  0.0000000000000000 11.0158431361380593 21.2850000000000001   T   T   T
  1.5899999999999999  8.2618823521035445 21.2850000000000001   T   T   T
  9.5400000000000009  0.0000000000000000 21.2850000000000001   T   T   T
  0.0000000000000000 11.0158431361380593  7.0949999999999998   F   F   F
  9.5400000000000009  0.0000000000000000  7.0949999999999998   F   F   F
  6.3600000000000003  0.0000000000000000  7.0949999999999998   F   F   F
 11.1300000000000008  2.7539607840345148  7.0949999999999998   F   F   F
  3.1800000000000002  0.0000000000000000 21.2850000000000001   T   T   T
  3.1800000000000002  0.0000000000000000  7.0949999999999998   F   F   F
  0.0000000000000000  0.0000000000000000  7.0949999999999998   F   F   F
  6.3600000000000003 11.0158431361380593 21.2850000000000001   T   T   T
  0.0000000000000000  0.0000000000000000 21.2850000000000001   T   T   T
  6.3600000000000003 11.0158431361380593  7.0949999999999998   F   F   F
 -1.5900000000000001  2.7539607840345148  7.0949999999999998   F   F   F
 -1.5900000000000001  2.7539607840345148 21.2850000000000001   T   T   T
  7.9500000000000002  8.2618823521035445 21.2850000000000001   T   T   T
 -3.1800000000000002  5.5079215680690297  7.0949999999999998   F   F   F
 -3.1800000000000002  5.5079215680690297 21.2850000000000001   T   T   T
 -4.7700000000000005  8.2618823521035445  7.0949999999999998   F   F   F
  9.5400000000000009  5.5079215680690297 21.2850000000000001   T   T   T
 -4.7700000000000005  8.2618823521035445 21.2850000000000001   T   T   T
  7.9500000000000002  8.2618823521035445  7.0949999999999998   F   F   F
  9.5400000000000009  5.5079215680690297  7.0949999999999998   F   F   F
 -6.3600000000000003 11.0158431361380593 21.2850000000000001   T   T   T
 -6.3600000000000003 11.0158431361380593  7.0949999999999998   F   F   F
 11.1300000000000008  2.7539607840345148 21.2850000000000001   T   T   T
 14.3100000000000005  0.9179869280115049  5.5000000000000000   F   F   F
  9.5400000000000009  3.6719477120460198 19.6899999999999977   T   T   T
  9.5400000000000009  3.6719477120460198 22.8799999999999990   T   T   T
  9.5400000000000009  9.1798692801150494 22.8799999999999990   T   T   T
  9.5400000000000009  9.1798692801150494 19.6899999999999977   T   T   T
  9.5400000000000009  3.6719477120460198  5.5000000000000000   F   F   F
  9.5400000000000009  3.6719477120460198  8.6899999999999995   F   F   F
 11.1300000000000008  6.4259084960805346  8.6899999999999995   F   F   F
 11.1300000000000008  0.9179869280115049 19.6899999999999977   T   T   T
 11.1300000000000008  0.9179869280115049 22.8799999999999990   T   T   T
 14.3100000000000005  0.9179869280115049 22.8799999999999990   T   T   T
  7.9500000000000002 11.9338300641495643  5.5000000000000000   F   F   F
 11.1300000000000008  0.9179869280115049  5.5000000000000000   F   F   F
 14.3100000000000005  0.9179869280115049 19.6899999999999977   T   T   T
 11.1300000000000008  0.9179869280115049  8.6899999999999995   F   F   F
 12.7200000000000006  3.6719477120460198  5.5000000000000000   F   F   F
 12.7200000000000006  3.6719477120460198 22.8799999999999990   T   T   T
  7.9500000000000002 11.9338300641495643  8.6899999999999995   F   F   F
  7.9500000000000011  6.4259084960805346  8.6899999999999995   F   F   F
  7.9500000000000011  6.4259084960805346  5.5000000000000000   F   F   F
  4.7700000000000005 11.9338300641495643  5.5000000000000000   F   F   F
  4.7700000000000005 11.9338300641495643 22.8799999999999990   T   T   T
  4.7700000000000005 11.9338300641495643  8.6899999999999995   F   F   F
 11.1300000000000008  6.4259084960805346  5.5000000000000000   F   F   F
  4.7700000000000005 11.9338300641495643 19.6899999999999977   T   T   T
  6.3600000000000003  9.1798692801150494 19.6899999999999977   T   T   T
  6.3600000000000003  9.1798692801150494 22.8799999999999990   T   T   T
 11.1300000000000008  6.4259084960805346 22.8799999999999990   T   T   T
  6.3600000000000003  9.1798692801150494  5.5000000000000000   F   F   F
 11.1300000000000008  6.4259084960805346 19.6899999999999977   T   T   T
  6.3600000000000003  9.1798692801150494  8.6899999999999995   F   F   F
 12.7200000000000006  3.6719477120460198 19.6899999999999977   T   T   T
 12.7200000000000006  3.6719477120460198  8.6899999999999995   F   F   F
  7.9500000000000011  6.4259084960805346 19.6899999999999977   T   T   T
  7.9500000000000011  6.4259084960805346 22.8799999999999990   T   T   T
  9.5400000000000009  9.1798692801150494  8.6899999999999995   F   F   F
 14.3100000000000005  0.9179869280115049  8.6899999999999995   F   F   F
  9.5400000000000009  9.1798692801150494  5.5000000000000000   F   F   F
  1.5900000000000001 11.9338300641495643 19.6899999999999977   T   T   T
  7.9500000000000002  0.9179869280115049 22.8799999999999990   T   T   T
  1.5900000000000001 11.9338300641495643  5.5000000000000000   F   F   F
  3.1800000000000002  3.6719477120460198  5.5000000000000000   F   F   F
  3.1800000000000002  3.6719477120460198  8.6899999999999995   F   F   F
  4.7700000000000005  0.9179869280115049 19.6899999999999977   T   T   T
  4.7700000000000005  0.9179869280115049 22.8799999999999990   T   T   T
  4.7700000000000005  0.9179869280115049  5.5000000000000000   F   F   F
  4.7700000000000005  0.9179869280115049  8.6899999999999995   F   F   F
 -4.7700000000000005 11.9338300641495643 19.6899999999999977   T   T   T
 -4.7700000000000005 11.9338300641495643 22.8799999999999990   T   T   T
 -4.7700000000000005 11.9338300641495643  5.5000000000000000   F   F   F
 -4.7700000000000005 11.9338300641495643  8.6899999999999995   F   F   F
 -3.1800000000000006  9.1798692801150494 19.6899999999999977   T   T   T
 -3.1800000000000006  9.1798692801150494 22.8799999999999990   T   T   T
  3.1800000000000002  3.6719477120460198 22.8799999999999990   T   T   T
 -3.1800000000000006  9.1798692801150494  5.5000000000000000   F   F   F
 -1.5900000000000001  6.4259084960805346 19.6899999999999977   T   T   T
 -1.5900000000000001  6.4259084960805346 22.8799999999999990   T   T   T
 -1.5900000000000001  6.4259084960805346  5.5000000000000000   F   F   F
 -1.5900000000000001  6.4259084960805346  8.6899999999999995   F   F   F
  0.0000000000000000  3.6719477120460198 19.6899999999999977   T   T   T
  0.0000000000000000  3.6719477120460198 22.8799999999999990   T   T   T
  0.0000000000000000  3.6719477120460198  5.5000000000000000   F   F   F
  0.0000000000000000  3.6719477120460198  8.6899999999999995   F   F   F
  1.5900000000000001  0.9179869280115049 19.6899999999999977   T   T   T
  1.5900000000000001  0.9179869280115049 22.8799999999999990   T   T   T
  1.5900000000000001  0.9179869280115049  5.5000000000000000   F   F   F
  1.5900000000000001  0.9179869280115049  8.6899999999999995   F   F   F
 -3.1800000000000006  9.1798692801150494  8.6899999999999995   F   F   F
  3.1800000000000002  3.6719477120460198 19.6899999999999977   T   T   T
  1.5900000000000001  6.4259084960805346  8.6899999999999995   F   F   F
  1.5900000000000001  6.4259084960805346  5.5000000000000000   F   F   F
  1.5900000000000001 11.9338300641495643  8.6899999999999995   F   F   F
  3.1799999999999997  9.1798692801150494 19.6899999999999977   T   T   T
  3.1799999999999997  9.1798692801150494 22.8799999999999990   T   T   T
  3.1799999999999997  9.1798692801150494  5.5000000000000000   F   F   F
  3.1799999999999997  9.1798692801150494  8.6899999999999995   F   F   F
  4.7700000000000005  6.4259084960805346 19.6899999999999977   T   T   T
  4.7700000000000005  6.4259084960805346 22.8799999999999990   T   T   T
  4.7700000000000005  6.4259084960805346  5.5000000000000000   F   F   F
  4.7700000000000005  6.4259084960805346  8.6899999999999995   F   F   F
  6.3600000000000003  3.6719477120460198 19.6899999999999977   T   T   T
  6.3600000000000003  3.6719477120460198 22.8799999999999990   T   T   T
  6.3600000000000003  3.6719477120460198  5.5000000000000000   F   F   F
  6.3600000000000003  3.6719477120460198  8.6899999999999995   F   F   F
  7.9500000000000002  0.9179869280115049 19.6899999999999977   T   T   T
  7.9500000000000002 11.9338300641495643 22.8799999999999990   T   T   T
  7.9500000000000002  0.9179869280115049  5.5000000000000000   F   F   F
  7.9500000000000002  0.9179869280115049  8.6899999999999995   F   F   F
 -1.5900000000000001 11.9338300641495643 19.6899999999999977   T   T   T
 -1.5900000000000001 11.9338300641495643 22.8799999999999990   T   T   T
 -1.5900000000000001 11.9338300641495643  5.5000000000000000   F   F   F
 -1.5900000000000001 11.9338300641495643  8.6899999999999995   F   F   F
 -0.0000000000000002  9.1798692801150494 19.6899999999999977   T   T   T
 -0.0000000000000002  9.1798692801150494 22.8799999999999990   T   T   T
 -0.0000000000000002  9.1798692801150494  5.5000000000000000   F   F   F
 -0.0000000000000002  9.1798692801150494  8.6899999999999995   F   F   F
  1.5900000000000001  6.4259084960805346 19.6899999999999977   T   T   T
  1.5900000000000001  6.4259084960805346 22.8799999999999990   T   T   T
  1.5900000000000001 11.9338300641495643 22.8799999999999990   T   T   T
  7.9500000000000002 11.9338300641495643 19.6899999999999977   T   T   T
