 C Cr  H Mo  S 
 1.0000000000000000
    15.9000000000000004    0.0000000000000000    0.0000000000000000
    -7.9500000000000037   13.7698039201725724    0.0000000000000000
     0.0000000000000000    0.0000000000000000   54.3800000000000026
  10   1  10  50 100
Cartesian
  9.3923692115473774  8.9977232627928565  6.5840072418440085
  8.3136862813908809  9.4031231376164968  7.4178576506240788
  9.6192354223749099 10.0160369888845597  5.6104665881998752
  8.6705407316330039 11.0751418549084626  5.8434156801666433
  7.8560752417876900 10.6862354422282930  6.9713512914835212
  6.2261511757575683  7.7690346353067330  5.0408660836188997
  6.0060734180160695  9.8311710754388120  3.9881249045191929
  5.5356291082499638  9.0372310967527252  5.0917340729390892
  6.9658721985683760  9.0627236255133106  3.2665761459008484
  7.1082120102817523  7.8000130815697686  3.9083001297031736
  7.5913562261388492  9.3466713935711994  5.3617534728455567
  7.0537899462583198 11.2696549020278507  7.4166384320515935
  4.7715928403883954  9.3259471965401879  5.8092416226897283
  6.0833275792580990  6.9294528407409084  5.7171018583635158
  5.7001926595756087 10.8481776176956650  3.7548301119465637
  7.5457513650610890  9.4111092003444501  2.4139476758601064
  7.8797414702122204  8.8167292076830588  8.2245937112763734
  9.9110783600449892  8.0427882013328862  6.6391755229036669
 -5.5282415246054351  9.9881721793024969  4.8256461863918609
  8.6091241070189515 12.0133695761658288  5.2973414798790994
  7.7957626021163202  7.0112380045140323  3.6096836948781412
  4.7700000000000005  8.2618823521035445 40.7850000000000037
 -3.1800000000000002 11.0158431361380593 13.5950000000000006
 -1.5900000000000003  8.2618823521035445 40.7850000000000037
  3.1800000000000006 11.0158431361380593 13.5950000000000006
 -1.5900000000000003  8.2618823521035445 13.5950000000000006
  3.1800000000000006 11.0158431361380593 40.7850000000000037
  0.0000000000000000  5.5079215680690297 13.5950000000000006
 12.7200000000000006  0.0000000000000000 13.5950000000000006
  1.5900000000000001  2.7539607840345148 40.7850000000000037
 12.7200000000000006  0.0000000000000000 40.7850000000000037
  1.5900000000000001  2.7539607840345148 13.5950000000000006
 -3.1800000000000002 11.0158431361380593 40.7850000000000037
  0.0000000000000000  5.5079215680690297 40.7850000000000037
  4.7700000000000005  8.2618823521035445 13.5950000000000006
  1.5899999999999999  8.2618823521035445 13.5950000000000006
  6.3600000000000003  0.0000000000000000 40.7850000000000037
  6.3600000000000012  5.5079215680690297 40.7850000000000037
  4.7700000000000005  2.7539607840345148 13.5950000000000006
  6.3600000000000012  5.5079215680690297 13.5950000000000006
  4.7700000000000005  2.7539607840345148 40.7850000000000037
  3.1800000000000002  5.5079215680690297 13.5950000000000006
  7.9500000000000011  2.7539607840345148 40.7850000000000037
  3.1800000000000002  5.5079215680690297 40.7850000000000037
  7.9500000000000011  2.7539607840345148 13.5950000000000006
  0.0000000000000000 11.0158431361380593 40.7850000000000037
  1.5899999999999999  8.2618823521035445 40.7850000000000037
  9.5400000000000009  0.0000000000000000 40.7850000000000037
  0.0000000000000000 11.0158431361380593 13.5950000000000006
  9.5400000000000009  0.0000000000000000 13.5950000000000006
  6.3600000000000003  0.0000000000000000 13.5950000000000006
 11.1300000000000008  2.7539607840345148 13.5950000000000006
  3.1800000000000002  0.0000000000000000 40.7850000000000037
  3.1800000000000002  0.0000000000000000 13.5950000000000006
  0.0000000000000000  0.0000000000000000 13.5950000000000006
  6.3600000000000003 11.0158431361380593 40.7850000000000037
  0.0000000000000000  0.0000000000000000 40.7850000000000037
  6.3600000000000003 11.0158431361380593 13.5950000000000006
 -1.5900000000000001  2.7539607840345148 13.5950000000000006
 -1.5900000000000001  2.7539607840345148 40.7850000000000037
  7.9500000000000002  8.2618823521035445 40.7850000000000037
 -3.1800000000000002  5.5079215680690297 13.5950000000000006
 -3.1800000000000002  5.5079215680690297 40.7850000000000037
 -4.7700000000000005  8.2618823521035445 13.5950000000000006
  9.5400000000000009  5.5079215680690297 40.7850000000000037
 -4.7700000000000005  8.2618823521035445 40.7850000000000037
  7.9500000000000002  8.2618823521035445 13.5950000000000006
  9.5400000000000009  5.5079215680690297 13.5950000000000006
 -6.3600000000000003 11.0158431361380593 40.7850000000000037
 -6.3600000000000003 11.0158431361380593 13.5950000000000006
 11.1300000000000008  2.7539607840345148 40.7850000000000037
 14.3100000000000005  0.9179869280115049 12.0000000000000000
  9.5400000000000009  3.6719477120460198 39.1899999999999977
  9.5400000000000009  3.6719477120460198 42.3800000000000026
  9.5400000000000009  9.1798692801150494 42.3800000000000026
  9.5400000000000009  9.1798692801150494 39.1899999999999977
  9.5400000000000009  3.6719477120460198 12.0000000000000000
  9.5400000000000009  3.6719477120460198 15.1900000000000013
 11.1300000000000008  6.4259084960805346 15.1900000000000013
 11.1300000000000008  0.9179869280115049 39.1899999999999977
 11.1300000000000008  0.9179869280115049 42.3800000000000026
 14.3100000000000005  0.9179869280115049 42.3800000000000026
  7.9500000000000002 11.9338300641495643 12.0000000000000000
 11.1300000000000008  0.9179869280115049 12.0000000000000000
 14.3100000000000005  0.9179869280115049 39.1899999999999977
 11.1300000000000008  0.9179869280115049 15.1900000000000013
 12.7200000000000006  3.6719477120460198 12.0000000000000000
 12.7200000000000006  3.6719477120460198 42.3800000000000026
  7.9500000000000002 11.9338300641495643 15.1900000000000013
  7.9500000000000011  6.4259084960805346 15.1900000000000013
  7.9500000000000011  6.4259084960805346 12.0000000000000000
  4.7700000000000005 11.9338300641495643 12.0000000000000000
  4.7700000000000005 11.9338300641495643 42.3800000000000026
  4.7700000000000005 11.9338300641495643 15.1900000000000013
 11.1300000000000008  6.4259084960805346 12.0000000000000000
  4.7700000000000005 11.9338300641495643 39.1899999999999977
  6.3600000000000003  9.1798692801150494 39.1899999999999977
  6.3600000000000003  9.1798692801150494 42.3800000000000026
 11.1300000000000008  6.4259084960805346 42.3800000000000026
  6.3600000000000003  9.1798692801150494 12.0000000000000000
 11.1300000000000008  6.4259084960805346 39.1899999999999977
  6.3600000000000003  9.1798692801150494 15.1900000000000013
 12.7200000000000006  3.6719477120460198 39.1899999999999977
 12.7200000000000006  3.6719477120460198 15.1900000000000013
  7.9500000000000011  6.4259084960805346 39.1899999999999977
  7.9500000000000011  6.4259084960805346 42.3800000000000026
  9.5400000000000009  9.1798692801150494 15.1900000000000013
 14.3100000000000005  0.9179869280115049 15.1900000000000013
  9.5400000000000009  9.1798692801150494 12.0000000000000000
  1.5900000000000001 11.9338300641495643 39.1899999999999977
  7.9500000000000002  0.9179869280115049 42.3800000000000026
  1.5900000000000001 11.9338300641495643 12.0000000000000000
  3.1800000000000002  3.6719477120460198 12.0000000000000000
  3.1800000000000002  3.6719477120460198 15.1900000000000013
  4.7700000000000005  0.9179869280115049 39.1899999999999977
  4.7700000000000005  0.9179869280115049 42.3800000000000026
  4.7700000000000005  0.9179869280115049 12.0000000000000000
  4.7700000000000005  0.9179869280115049 15.1900000000000013
 -4.7700000000000005 11.9338300641495643 39.1899999999999977
 -4.7700000000000005 11.9338300641495643 42.3800000000000026
 -4.7700000000000005 11.9338300641495643 12.0000000000000000
 -4.7700000000000005 11.9338300641495643 15.1900000000000013
 -3.1800000000000006  9.1798692801150494 39.1899999999999977
 -3.1800000000000006  9.1798692801150494 42.3800000000000026
  3.1800000000000002  3.6719477120460198 42.3800000000000026
 -3.1800000000000006  9.1798692801150494 12.0000000000000000
 -1.5900000000000001  6.4259084960805346 39.1899999999999977
 -1.5900000000000001  6.4259084960805346 42.3800000000000026
 -1.5900000000000001  6.4259084960805346 12.0000000000000000
 -1.5900000000000001  6.4259084960805346 15.1900000000000013
  0.0000000000000000  3.6719477120460198 39.1899999999999977
  0.0000000000000000  3.6719477120460198 42.3800000000000026
  0.0000000000000000  3.6719477120460198 12.0000000000000000
  0.0000000000000000  3.6719477120460198 15.1900000000000013
  1.5900000000000001  0.9179869280115049 39.1899999999999977
  1.5900000000000001  0.9179869280115049 42.3800000000000026
  1.5900000000000001  0.9179869280115049 12.0000000000000000
  1.5900000000000001  0.9179869280115049 15.1900000000000013
 -3.1800000000000006  9.1798692801150494 15.1900000000000013
  3.1800000000000002  3.6719477120460198 39.1899999999999977
  1.5900000000000001  6.4259084960805346 15.1900000000000013
  1.5900000000000001  6.4259084960805346 12.0000000000000000
  1.5900000000000001 11.9338300641495643 15.1900000000000013
  3.1799999999999997  9.1798692801150494 39.1899999999999977
  3.1799999999999997  9.1798692801150494 42.3800000000000026
  3.1799999999999997  9.1798692801150494 12.0000000000000000
  3.1799999999999997  9.1798692801150494 15.1900000000000013
  4.7700000000000005  6.4259084960805346 39.1899999999999977
  4.7700000000000005  6.4259084960805346 42.3800000000000026
  4.7700000000000005  6.4259084960805346 12.0000000000000000
  4.7700000000000005  6.4259084960805346 15.1900000000000013
  6.3600000000000003  3.6719477120460198 39.1899999999999977
  6.3600000000000003  3.6719477120460198 42.3800000000000026
  6.3600000000000003  3.6719477120460198 12.0000000000000000
  6.3600000000000003  3.6719477120460198 15.1900000000000013
  7.9500000000000002  0.9179869280115049 39.1899999999999977
  7.9500000000000002 11.9338300641495643 42.3800000000000026
  7.9500000000000002  0.9179869280115049 12.0000000000000000
  7.9500000000000002  0.9179869280115049 15.1900000000000013
 -1.5900000000000001 11.9338300641495643 39.1899999999999977
 -1.5900000000000001 11.9338300641495643 42.3800000000000026
 -1.5900000000000001 11.9338300641495643 12.0000000000000000
 -1.5900000000000001 11.9338300641495643 15.1900000000000013
 -0.0000000000000002  9.1798692801150494 39.1899999999999977
 -0.0000000000000002  9.1798692801150494 42.3800000000000026
 -0.0000000000000002  9.1798692801150494 12.0000000000000000
 -0.0000000000000002  9.1798692801150494 15.1900000000000013
  1.5900000000000001  6.4259084960805346 39.1899999999999977
  1.5900000000000001  6.4259084960805346 42.3800000000000026
  1.5900000000000001 11.9338300641495643 42.3800000000000026
  7.9500000000000002 11.9338300641495643 39.1899999999999977
