 C Cr  H Mo  S                          
   1.00000000000000     
    15.9000000000000004    0.0000000000000000    0.0000000000000000
    -7.9500000000000037   13.7698039201725724    0.0000000000000000
     0.0000000000000000    0.0000000000000000   32.3799999999999955
   C    Cr   H    Mo   S 
    10     1    10    50   100
Selective dynamics
Direct
  0.3821468845099237  0.3770960754923838  0.3766159873170231   T   T   T
  0.3161119850828087  0.3437188011081053  0.4107572124789864   T   T   T
  0.4453164842085092  0.3384065168974111  0.3806177454251957   T   T   T
  0.4197543538377973  0.2807193649705491  0.4171887572646336   T   T   T
  0.3389370246235783  0.2831096173796158  0.4361832387210401   T   T   T
  0.4573923770951742  0.5372881243604644  0.4703139289015056   T   T   T
  0.5543297932661589  0.4727078897130177  0.4898117543372823   T   T   T
  0.4642594310000759  0.4699019329582488  0.4981611627221408   T   T   T
  0.6023878114210297  0.5404815585848065  0.4574313226834056   T   T   T
  0.5433892398624003  0.5803375114614268  0.4451567729537832   T   T   T
  0.4570557927687014  0.4243975096185088  0.4365818281068679   T   T   T
  0.3002824330527057  0.2438719401611731  0.4638288248340200   T   T   T
  0.4121361231312180  0.4270527268836638  0.5220729430019097   T   T   T
  0.3994840175052426  0.5547203303343504  0.4695683336019013   T   T   T
  0.5803389519593709  0.4291183316217429  0.5050986678689086   T   T   T
  0.6705763582575245  0.5559363623397643  0.4430730843940663   T   T   T
  0.2581202942601540  0.3598031860928916  0.4161517627233142   T   T   T
  0.3854675205662693  0.4260038250889599  0.3522540793037043   T   T   T
  0.5051472216794561  0.3533444596712961  0.3598925119126989   T   T   T
  0.4548650981748943  0.2415488209501501  0.4285540062010861   T   T   T
  0.5604116060692301  0.6333665554291432  0.4206200340127821   T   T   T
  0.6000694520298689  0.5999449082690276  0.6543164720471332   T   T   T
  0.2000000000000028  0.7999999999999972  0.2191167387276067   F   F   F
  0.2001322263237217  0.5999466616379180  0.6544554169739892   T   T   T
  0.6000000000000014  0.7999999999999972  0.2191167387276067   F   F   F
  0.2000000000000028  0.6000000000000014  0.2191167387276067   F   F   F
  0.6000853648916705  0.7999009139247900  0.6543675331727358   T   T   T
  0.2000000000000028  0.3999999999999986  0.2191167387276067   F   F   F
  0.7999999999999972  0.0000000000000000  0.2191167387276067   F   F   F
  0.2001414724418246  0.1999817271554508  0.6542787290354597   T   T   T
  0.8000929065930444 -0.0000693443520112  0.6543729509673660   T   T   T
  0.2000000000000028  0.2000000000000028  0.2191167387276067   F   F   F
  0.2001218506903590  0.7999674829964547  0.6544846158022619   T   T   T
  0.2001119482676435  0.3998991817594781  0.6543578414808681   T   T   T
  0.6000000000000014  0.6000000000000014  0.2191167387276067   F   F   F
  0.3999999999999986  0.6000000000000014  0.2191167387276067   F   F   F
  0.4001458054860131 -0.0000493380087834  0.6544384958096693   T   T   T
  0.6000913434015617  0.3999777522209404  0.6544266291266221   T   T   T
  0.3999999999999986  0.2000000000000028  0.2191167387276067   F   F   F
  0.6000000000000014  0.3999999999999986  0.2191167387276067   F   F   F
  0.4001049511259964  0.1999777604545786  0.6543570067439631   T   T   T
  0.3999999999999986  0.3999999999999986  0.2191167387276067   F   F   F
  0.6001157797824881  0.1999680382674489  0.6544503656918266   T   T   T
  0.4002160612168851  0.4000181525932024  0.6542919514879698   T   T   T
  0.6000000000000014  0.2000000000000028  0.2191167387276067   F   F   F
  0.4001258310434251  0.7999439294038861  0.6544459499520859   T   T   T
  0.4001359988017123  0.5999459964252633  0.6543288147609578   T   T   T
  0.6001046553336304 -0.0000740468794502  0.6544454261040803   T   T   T
  0.3999999999999986  0.7999999999999972  0.2191167387276067   F   F   F
  0.6000000000000014  0.0000000000000000  0.2191167387276067   F   F   F
  0.3999999999999986  0.0000000000000000  0.2191167387276067   F   F   F
  0.7999999999999972  0.2000000000000028  0.2191167387276067   F   F   F
  0.2001220013044660 -0.0000531970429798  0.6544179386218121   T   T   T
  0.2000000000000028  0.0000000000000000  0.2191167387276067   F   F   F
  0.0000000000000000  0.0000000000000000  0.2191167387276067   F   F   F
  0.8000987169631920  0.7999259249379838  0.6543588276829619   T   T   T
  0.0001115561505609 -0.0000466151274890  0.6543269898042638   T   T   T
  0.7999999999999972  0.7999999999999972  0.2191167387276067   F   F   F
  0.0000000000000000  0.2000000000000028  0.2191167387276067   F   F   F
  0.0000749275931407  0.1999108208209416  0.6543856454926565   T   T   T
  0.8000570228934846  0.5999674795511720  0.6544187899402185   T   T   T
  0.0000000000000000  0.3999999999999986  0.2191167387276067   F   F   F
  0.0001031539312350  0.3999449039850870  0.6544380105816985   T   T   T
  0.0000000000000000  0.6000000000000014  0.2191167387276067   F   F   F
  0.8000740937961733  0.3999400899672061  0.6544755259638825   T   T   T
  0.0001093547562807  0.5999624541535339  0.6544857529170516   T   T   T
  0.7999999999999972  0.6000000000000014  0.2191167387276067   F   F   F
  0.7999999999999972  0.3999999999999986  0.2191167387276067   F   F   F
  0.0001048602618297  0.7999635952637202  0.6544094200465843   T   T   T
  0.0000000000000000  0.7999999999999972  0.2191167387276067   F   F   F
  0.8000881340385529  0.1999345645992750  0.6544439964949769   T   T   T
  0.9333333333333300  0.0666666666666700  0.1698579369981488   F   F   F
  0.7334506283311326  0.2666345298120647  0.6062276780493755   T   T   T
  0.7334229660017739  0.2666039766247404  0.7027238858535596   T   T   T
  0.9333733645611496  0.6666635295850410  0.7027131917471147   T   T   T
  0.9334587892870134  0.6666100520323968  0.6062110285496981   T   T   T
  0.7333333333333343  0.2666666666666657  0.1698579369981488   F   F   F
  0.7333333333333343  0.2666666666666657  0.2683755404570718   F   F   F
  0.9333333333333371  0.4666666666666686  0.2683755404570718   F   F   F
  0.7334042245673799  0.0666336601003035  0.6061875259641913   T   T   T
  0.7334543093526298  0.0665440117997253  0.7026951708610490   T   T   T
  0.9334814844807314  0.0665959005194535  0.7026170624992940   T   T   T
  0.9333333333333371  0.8666666666666671  0.1698579369981488   F   F   F
  0.7333333333333343  0.0666666666666700  0.1698579369981488   F   F   F
  0.9333954426193006  0.0665840630403057  0.6061180866528360   T   T   T
  0.7333333333333343  0.0666666666666700  0.2683755404570718   F   F   F
  0.9333333333333300  0.2666666666666657  0.1698579369981488   F   F   F
  0.9334858990104559  0.2665434821521785  0.7026904862239189   T   T   T
  0.9333333333333371  0.8666666666666671  0.2683755404570718   F   F   F
  0.7333333333333343  0.4666666666666686  0.2683755404570718   F   F   F
  0.7333333333333343  0.4666666666666686  0.1698579369981488   F   F   F
  0.7333333333333343  0.8666666666666671  0.1698579369981488   F   F   F
  0.7334397034563243  0.8665697278591274  0.7026334771771843   T   T   T
  0.7333333333333343  0.8666666666666671  0.2683755404570718   F   F   F
  0.9333333333333371  0.4666666666666686  0.1698579369981488   F   F   F
  0.7334124368841419  0.8666060956270450  0.6061148412280789   T   T   T
  0.7334445367932966  0.6665961279833618  0.6060910081311878   T   T   T
  0.7333482639758193  0.6666601402138039  0.7026289993023562   T   T   T
  0.9334024546897048  0.4665873928420515  0.7027460777457857   T   T   T
  0.7333333333333343  0.6666666666666643  0.1698579369981488   F   F   F
  0.9334014199182580  0.4666395599764895  0.6062298946576965   T   T   T
  0.7333333333333343  0.6666666666666643  0.2683755404570718   F   F   F
  0.9333719597254876  0.2666451055775319  0.6061850366745433   T   T   T
  0.9333333333333300  0.2666666666666657  0.2683755404570718   F   F   F
  0.7334204126675924  0.4666288330930085  0.6061852865542887   T   T   T
  0.7334075192974006  0.4666830444680541  0.7027099375952786   T   T   T
  0.9333333333333371  0.6666666666666643  0.2683755404570718   F   F   F
  0.9333333333333300  0.0666666666666700  0.2683755404570718   F   F   F
  0.9333333333333371  0.6666666666666643  0.1698579369981488   F   F   F
  0.5334110174224337  0.8666263624389711  0.6061794014859708   T   T   T
  0.5334588780047791  0.0666236706823819  0.7027219348587997   T   T   T
  0.5333333333333314  0.8666666666666671  0.1698579369981488   F   F   F
  0.3333333333333357  0.2666666666666657  0.1698579369981488   F   F   F
  0.3333333333333357  0.2666666666666657  0.2683755404570718   F   F   F
  0.3334894790722180  0.0665475832654263  0.6061578267514696   T   T   T
  0.3334345575495584  0.0666971326984235  0.7026660693115276   T   T   T
  0.3333333333333357  0.0666666666666700  0.1698579369981488   F   F   F
  0.3333333333333357  0.0666666666666700  0.2683755404570718   F   F   F
  0.1334630486740210  0.8665338165066638  0.6061972875745941   T   T   T
  0.1334496214280481  0.8666996688300217  0.7027060987724925   T   T   T
  0.1333333333333329  0.8666666666666671  0.1698579369981488   F   F   F
  0.1333333333333329  0.8666666666666671  0.2683755404570718   F   F   F
  0.1334064201664249  0.6666038239196270  0.6062490652261028   T   T   T
  0.1334410467315846  0.6665761182571509  0.7027482752067415   T   T   T
  0.3334428579950915  0.2666899742317164  0.7025645949061949   T   T   T
  0.1333333333333329  0.6666666666666643  0.1698579369981488   F   F   F
  0.1333610311082974  0.4666434249831065  0.6061852349050467   T   T   T
  0.1334645392313101  0.4665156270957876  0.7026918412389694   T   T   T
  0.1333333333333329  0.4666666666666686  0.1698579369981488   F   F   F
  0.1333333333333329  0.4666666666666686  0.2683755404570718   F   F   F
  0.1334065276103817  0.2666255699580666  0.6060890107938512   T   T   T
  0.1334749687275467  0.2665748332507161  0.7026033226677515   T   T   T
  0.1333333333333329  0.2666666666666657  0.1698579369981488   F   F   F
  0.1333333333333329  0.2666666666666657  0.2683755404570718   F   F   F
  0.1334679823240517  0.0665502454851405  0.6060978600783041   T   T   T
  0.1334583563711928  0.0666737140221811  0.7026068662343469   T   T   T
  0.1333333333333329  0.0666666666666700  0.1698579369981488   F   F   F
  0.1333333333333329  0.0666666666666700  0.2683755404570718   F   F   F
  0.1333333333333329  0.6666666666666643  0.2683755404570718   F   F   F
  0.3334960981931467  0.2666281039263926  0.6060300715724464   T   T   T
  0.3333333333333357  0.4666666666666686  0.2683755404570718   F   F   F
  0.3333333333333357  0.4666666666666686  0.1698579369981488   F   F   F
  0.5333333333333314  0.8666666666666671  0.2683755404570718   F   F   F
  0.5334564934520027  0.6666192406339846  0.6060486753593903   T   T   T
  0.5334402734575111  0.6665592969031640  0.7026150138851722   T   T   T
  0.5333333333333314  0.6666666666666643  0.1698579369981488   F   F   F
  0.5333333333333314  0.6666666666666643  0.2683755404570718   F   F   F
  0.5336148154072384  0.4666098140091808  0.6061192736962809   T   T   T
  0.5333434281354240  0.4666558159096587  0.7026358737805057   T   T   T
  0.5333333333333314  0.4666666666666686  0.1698579369981488   F   F   F
  0.5333333333333314  0.4666666666666686  0.2683755404570718   F   F   F
  0.5335327812750288  0.2666747585306037  0.6061527305330781   T   T   T
  0.5333425593344377  0.2665980212609226  0.7026861888752951   T   T   T
  0.5333333333333314  0.2666666666666657  0.1698579369981488   F   F   F
  0.5333333333333314  0.2666666666666657  0.2683755404570718   F   F   F
  0.5334358059973759  0.0666259912691246  0.6062111976186348   T   T   T
  0.9334049182056493  0.8666671706481636  0.7026412130626908   T   T   T
  0.5333333333333314  0.0666666666666700  0.1698579369981488   F   F   F
  0.5333333333333314  0.0666666666666700  0.2683755404570718   F   F   F
  0.3334170896916336  0.8665892727201612  0.6062341108134455   T   T   T
  0.3334808699975024  0.8666063551978884  0.7027372900099468   T   T   T
  0.3333333333333357  0.8666666666666671  0.1698579369981488   F   F   F
  0.3333333333333357  0.8666666666666671  0.2683755404570718   F   F   F
  0.3333931175234185  0.6666396107850603  0.6061783871311049   T   T   T
  0.3335143845053654  0.6665349838450787  0.7026778244082250   T   T   T
  0.3333333333333357  0.6666666666666643  0.1698579369981488   F   F   F
  0.3333333333333357  0.6666666666666643  0.2683755404570718   F   F   F
  0.3334269439320144  0.4666564352789696  0.6060441049155796   T   T   T
  0.3334965703666338  0.4665860571673139  0.7025842859644724   T   T   T
  0.5334987324481042  0.8665645441731206  0.7026838195604028   T   T   T
  0.9334657225876266  0.8665487938041672  0.6061253158649247   T   T   T
 
  0.00000000E+00  0.00000000E+00  0.00000000E+00
  0.00000000E+00  0.00000000E+00  0.00000000E+00
  0.00000000E+00  0.00000000E+00  0.00000000E+00
  0.00000000E+00  0.00000000E+00  0.00000000E+00
  0.00000000E+00  0.00000000E+00  0.00000000E+00
  0.00000000E+00  0.00000000E+00  0.00000000E+00
  0.00000000E+00  0.00000000E+00  0.00000000E+00
  0.00000000E+00  0.00000000E+00  0.00000000E+00
  0.00000000E+00  0.00000000E+00  0.00000000E+00
  0.00000000E+00  0.00000000E+00  0.00000000E+00
  0.00000000E+00  0.00000000E+00  0.00000000E+00
  0.00000000E+00  0.00000000E+00  0.00000000E+00
  0.00000000E+00  0.00000000E+00  0.00000000E+00
  0.00000000E+00  0.00000000E+00  0.00000000E+00
  0.00000000E+00  0.00000000E+00  0.00000000E+00
  0.00000000E+00  0.00000000E+00  0.00000000E+00
  0.00000000E+00  0.00000000E+00  0.00000000E+00
  0.00000000E+00  0.00000000E+00  0.00000000E+00
  0.00000000E+00  0.00000000E+00  0.00000000E+00
  0.00000000E+00  0.00000000E+00  0.00000000E+00
  0.00000000E+00  0.00000000E+00  0.00000000E+00
  0.00000000E+00  0.00000000E+00  0.00000000E+00
  0.00000000E+00  0.00000000E+00  0.00000000E+00
  0.00000000E+00  0.00000000E+00  0.00000000E+00
  0.00000000E+00  0.00000000E+00  0.00000000E+00
  0.00000000E+00  0.00000000E+00  0.00000000E+00
  0.00000000E+00  0.00000000E+00  0.00000000E+00
  0.00000000E+00  0.00000000E+00  0.00000000E+00
  0.00000000E+00  0.00000000E+00  0.00000000E+00
  0.00000000E+00  0.00000000E+00  0.00000000E+00
  0.00000000E+00  0.00000000E+00  0.00000000E+00
  0.00000000E+00  0.00000000E+00  0.00000000E+00
  0.00000000E+00  0.00000000E+00  0.00000000E+00
  0.00000000E+00  0.00000000E+00  0.00000000E+00
  0.00000000E+00  0.00000000E+00  0.00000000E+00
  0.00000000E+00  0.00000000E+00  0.00000000E+00
  0.00000000E+00  0.00000000E+00  0.00000000E+00
  0.00000000E+00  0.00000000E+00  0.00000000E+00
  0.00000000E+00  0.00000000E+00  0.00000000E+00
  0.00000000E+00  0.00000000E+00  0.00000000E+00
  0.00000000E+00  0.00000000E+00  0.00000000E+00
  0.00000000E+00  0.00000000E+00  0.00000000E+00
  0.00000000E+00  0.00000000E+00  0.00000000E+00
  0.00000000E+00  0.00000000E+00  0.00000000E+00
  0.00000000E+00  0.00000000E+00  0.00000000E+00
  0.00000000E+00  0.00000000E+00  0.00000000E+00
  0.00000000E+00  0.00000000E+00  0.00000000E+00
  0.00000000E+00  0.00000000E+00  0.00000000E+00
  0.00000000E+00  0.00000000E+00  0.00000000E+00
  0.00000000E+00  0.00000000E+00  0.00000000E+00
  0.00000000E+00  0.00000000E+00  0.00000000E+00
  0.00000000E+00  0.00000000E+00  0.00000000E+00
  0.00000000E+00  0.00000000E+00  0.00000000E+00
  0.00000000E+00  0.00000000E+00  0.00000000E+00
  0.00000000E+00  0.00000000E+00  0.00000000E+00
  0.00000000E+00  0.00000000E+00  0.00000000E+00
  0.00000000E+00  0.00000000E+00  0.00000000E+00
  0.00000000E+00  0.00000000E+00  0.00000000E+00
  0.00000000E+00  0.00000000E+00  0.00000000E+00
  0.00000000E+00  0.00000000E+00  0.00000000E+00
  0.00000000E+00  0.00000000E+00  0.00000000E+00
  0.00000000E+00  0.00000000E+00  0.00000000E+00
  0.00000000E+00  0.00000000E+00  0.00000000E+00
  0.00000000E+00  0.00000000E+00  0.00000000E+00
  0.00000000E+00  0.00000000E+00  0.00000000E+00
  0.00000000E+00  0.00000000E+00  0.00000000E+00
  0.00000000E+00  0.00000000E+00  0.00000000E+00
  0.00000000E+00  0.00000000E+00  0.00000000E+00
  0.00000000E+00  0.00000000E+00  0.00000000E+00
  0.00000000E+00  0.00000000E+00  0.00000000E+00
  0.00000000E+00  0.00000000E+00  0.00000000E+00
  0.00000000E+00  0.00000000E+00  0.00000000E+00
  0.00000000E+00  0.00000000E+00  0.00000000E+00
  0.00000000E+00  0.00000000E+00  0.00000000E+00
  0.00000000E+00  0.00000000E+00  0.00000000E+00
  0.00000000E+00  0.00000000E+00  0.00000000E+00
  0.00000000E+00  0.00000000E+00  0.00000000E+00
  0.00000000E+00  0.00000000E+00  0.00000000E+00
  0.00000000E+00  0.00000000E+00  0.00000000E+00
  0.00000000E+00  0.00000000E+00  0.00000000E+00
  0.00000000E+00  0.00000000E+00  0.00000000E+00
  0.00000000E+00  0.00000000E+00  0.00000000E+00
  0.00000000E+00  0.00000000E+00  0.00000000E+00
  0.00000000E+00  0.00000000E+00  0.00000000E+00
  0.00000000E+00  0.00000000E+00  0.00000000E+00
  0.00000000E+00  0.00000000E+00  0.00000000E+00
  0.00000000E+00  0.00000000E+00  0.00000000E+00
  0.00000000E+00  0.00000000E+00  0.00000000E+00
  0.00000000E+00  0.00000000E+00  0.00000000E+00
  0.00000000E+00  0.00000000E+00  0.00000000E+00
  0.00000000E+00  0.00000000E+00  0.00000000E+00
  0.00000000E+00  0.00000000E+00  0.00000000E+00
  0.00000000E+00  0.00000000E+00  0.00000000E+00
  0.00000000E+00  0.00000000E+00  0.00000000E+00
  0.00000000E+00  0.00000000E+00  0.00000000E+00
  0.00000000E+00  0.00000000E+00  0.00000000E+00
  0.00000000E+00  0.00000000E+00  0.00000000E+00
  0.00000000E+00  0.00000000E+00  0.00000000E+00
  0.00000000E+00  0.00000000E+00  0.00000000E+00
  0.00000000E+00  0.00000000E+00  0.00000000E+00
  0.00000000E+00  0.00000000E+00  0.00000000E+00
  0.00000000E+00  0.00000000E+00  0.00000000E+00
  0.00000000E+00  0.00000000E+00  0.00000000E+00
  0.00000000E+00  0.00000000E+00  0.00000000E+00
  0.00000000E+00  0.00000000E+00  0.00000000E+00
  0.00000000E+00  0.00000000E+00  0.00000000E+00
  0.00000000E+00  0.00000000E+00  0.00000000E+00
  0.00000000E+00  0.00000000E+00  0.00000000E+00
  0.00000000E+00  0.00000000E+00  0.00000000E+00
  0.00000000E+00  0.00000000E+00  0.00000000E+00
  0.00000000E+00  0.00000000E+00  0.00000000E+00
  0.00000000E+00  0.00000000E+00  0.00000000E+00
  0.00000000E+00  0.00000000E+00  0.00000000E+00
  0.00000000E+00  0.00000000E+00  0.00000000E+00
  0.00000000E+00  0.00000000E+00  0.00000000E+00
  0.00000000E+00  0.00000000E+00  0.00000000E+00
  0.00000000E+00  0.00000000E+00  0.00000000E+00
  0.00000000E+00  0.00000000E+00  0.00000000E+00
  0.00000000E+00  0.00000000E+00  0.00000000E+00
  0.00000000E+00  0.00000000E+00  0.00000000E+00
  0.00000000E+00  0.00000000E+00  0.00000000E+00
  0.00000000E+00  0.00000000E+00  0.00000000E+00
  0.00000000E+00  0.00000000E+00  0.00000000E+00
  0.00000000E+00  0.00000000E+00  0.00000000E+00
  0.00000000E+00  0.00000000E+00  0.00000000E+00
  0.00000000E+00  0.00000000E+00  0.00000000E+00
  0.00000000E+00  0.00000000E+00  0.00000000E+00
  0.00000000E+00  0.00000000E+00  0.00000000E+00
  0.00000000E+00  0.00000000E+00  0.00000000E+00
  0.00000000E+00  0.00000000E+00  0.00000000E+00
  0.00000000E+00  0.00000000E+00  0.00000000E+00
  0.00000000E+00  0.00000000E+00  0.00000000E+00
  0.00000000E+00  0.00000000E+00  0.00000000E+00
  0.00000000E+00  0.00000000E+00  0.00000000E+00
  0.00000000E+00  0.00000000E+00  0.00000000E+00
  0.00000000E+00  0.00000000E+00  0.00000000E+00
  0.00000000E+00  0.00000000E+00  0.00000000E+00
  0.00000000E+00  0.00000000E+00  0.00000000E+00
  0.00000000E+00  0.00000000E+00  0.00000000E+00
  0.00000000E+00  0.00000000E+00  0.00000000E+00
  0.00000000E+00  0.00000000E+00  0.00000000E+00
  0.00000000E+00  0.00000000E+00  0.00000000E+00
  0.00000000E+00  0.00000000E+00  0.00000000E+00
  0.00000000E+00  0.00000000E+00  0.00000000E+00
  0.00000000E+00  0.00000000E+00  0.00000000E+00
  0.00000000E+00  0.00000000E+00  0.00000000E+00
  0.00000000E+00  0.00000000E+00  0.00000000E+00
  0.00000000E+00  0.00000000E+00  0.00000000E+00
  0.00000000E+00  0.00000000E+00  0.00000000E+00
  0.00000000E+00  0.00000000E+00  0.00000000E+00
  0.00000000E+00  0.00000000E+00  0.00000000E+00
  0.00000000E+00  0.00000000E+00  0.00000000E+00
  0.00000000E+00  0.00000000E+00  0.00000000E+00
  0.00000000E+00  0.00000000E+00  0.00000000E+00
  0.00000000E+00  0.00000000E+00  0.00000000E+00
  0.00000000E+00  0.00000000E+00  0.00000000E+00
  0.00000000E+00  0.00000000E+00  0.00000000E+00
  0.00000000E+00  0.00000000E+00  0.00000000E+00
  0.00000000E+00  0.00000000E+00  0.00000000E+00
  0.00000000E+00  0.00000000E+00  0.00000000E+00
  0.00000000E+00  0.00000000E+00  0.00000000E+00
  0.00000000E+00  0.00000000E+00  0.00000000E+00
  0.00000000E+00  0.00000000E+00  0.00000000E+00
  0.00000000E+00  0.00000000E+00  0.00000000E+00
  0.00000000E+00  0.00000000E+00  0.00000000E+00
  0.00000000E+00  0.00000000E+00  0.00000000E+00
  0.00000000E+00  0.00000000E+00  0.00000000E+00
  0.00000000E+00  0.00000000E+00  0.00000000E+00
  0.00000000E+00  0.00000000E+00  0.00000000E+00
  0.00000000E+00  0.00000000E+00  0.00000000E+00
  0.00000000E+00  0.00000000E+00  0.00000000E+00
