 C Cr  H Mo  S 
 1.0000000000000000
    15.9000000000000004    0.0000000000000000    0.0000000000000000
    -7.9500000000000037   13.7698039201725724    0.0000000000000000
     0.0000000000000000    0.0000000000000000   54.3800000000000026
  10   1  10  50 100
Selective dynamics
Cartesian
  0.4690197366159742  3.2141726235181971 53.5801825828487779   T   T   T
 -0.7030955294130704  3.7776705830552175 54.1562279623806475   T   T   T
  1.2193530202854062  4.2608557592299832 52.9656364873488172   T   T   T
  0.5067254127066685  5.4970840891450541 53.1653648582867788   T   T   T
 -0.6941735980887777  5.1893906803689953 53.9069896335712855   T   T   T
 13.6845956223604155  3.1715321290196559 50.9902123145416581   T   T   T
 -1.6185320035398698  5.3452792218722029 50.4177860287222472   T   T   T
 -2.5851656172277644  4.5604360755109683 51.1383777490925695   T   T   T
 -0.6727814874327636  4.4543757930600139 49.8310963020998798   T   T   T
 -1.0303547026012525  3.1216216696115278 50.1809763578290031   T   T   T
 -0.7135310492775976  4.2345572717185096 52.0246422728875118   T   T   T
 -1.4466484510162745  5.9018105688193110 54.2364742269939910   T   T   T
 12.4438463970488975  4.9421064588923684 51.6652867886891585   T   T   T
 13.1476001492156840  2.3149849112879246 51.3909038644225689   T   T   T
 -1.5982919272299727  6.4302118047230490 50.3484792065586007   T   T   T
  0.2141737302020982  4.7486119139766876 49.2731149301304043   T   T   T
 -1.4938502375453604  3.2235977816091550  0.2769268080281864   T   T   T
  0.7160081101553831  2.1547407979873969 53.5555931142781247   T   T   T
  2.1595133704969687  4.1397251610157593 52.4323107425178492   T   T   T
  0.8356358345086872  6.4852095326156691 52.8528487253744430   T   T   T
 -0.4765379128809904  2.2249642572509472 49.9101329308334059   T   T   T
  4.7700000000000005  8.2618823521035445 40.7850000000000037   T   T   F
 -3.1800000000000002 11.0158431361380593 13.5950000000000006   F   F   F
 -1.5900000000000003  8.2618823521035445 40.7850000000000037   T   T   F
  3.1800000000000006 11.0158431361380593 13.5950000000000006   F   F   F
 -1.5900000000000003  8.2618823521035445 13.5950000000000006   F   F   F
  3.1800000000000006 11.0158431361380593 40.7850000000000037   T   T   F
  0.0000000000000000  5.5079215680690297 13.5950000000000006   F   F   F
 12.7200000000000006  0.0000000000000000 13.5950000000000006   F   F   F
  1.5900000000000001  2.7539607840345148 40.7850000000000037   T   T   F
 12.7200000000000006  0.0000000000000000 40.7850000000000037   T   T   F
  1.5900000000000001  2.7539607840345148 13.5950000000000006   F   F   F
 -3.1800000000000002 11.0158431361380593 40.7850000000000037   T   T   F
  0.0000000000000000  5.5079215680690297 40.7850000000000037   T   T   F
  4.7700000000000005  8.2618823521035445 13.5950000000000006   F   F   F
  1.5899999999999999  8.2618823521035445 13.5950000000000006   F   F   F
  6.3600000000000003  0.0000000000000000 40.7850000000000037   T   T   F
  6.3600000000000012  5.5079215680690297 40.7850000000000037   T   T   F
  4.7700000000000005  2.7539607840345148 13.5950000000000006   F   F   F
  6.3600000000000012  5.5079215680690297 13.5950000000000006   F   F   F
  4.7700000000000005  2.7539607840345148 40.7850000000000037   T   T   F
  3.1800000000000002  5.5079215680690297 13.5950000000000006   F   F   F
  7.9500000000000011  2.7539607840345148 40.7850000000000037   T   T   F
  3.1800000000000002  5.5079215680690297 40.7850000000000037   T   T   F
  7.9500000000000011  2.7539607840345148 13.5950000000000006   F   F   F
  0.0000000000000000 11.0158431361380593 40.7850000000000037   T   T   F
  1.5899999999999999  8.2618823521035445 40.7850000000000037   T   T   F
  9.5400000000000009  0.0000000000000000 40.7850000000000037   T   T   F
  0.0000000000000000 11.0158431361380593 13.5950000000000006   F   F   F
  9.5400000000000009  0.0000000000000000 13.5950000000000006   F   F   F
  6.3600000000000003  0.0000000000000000 13.5950000000000006   F   F   F
 11.1300000000000008  2.7539607840345148 13.5950000000000006   F   F   F
  3.1800000000000002  0.0000000000000000 40.7850000000000037   T   T   F
  3.1800000000000002  0.0000000000000000 13.5950000000000006   F   F   F
  0.0000000000000000  0.0000000000000000 13.5950000000000006   F   F   F
  6.3600000000000003 11.0158431361380593 40.7850000000000037   T   T   F
  0.0000000000000000  0.0000000000000000 40.7850000000000037   T   T   F
  6.3600000000000003 11.0158431361380593 13.5950000000000006   F   F   F
 -1.5900000000000001  2.7539607840345148 13.5950000000000006   F   F   F
 -1.5900000000000001  2.7539607840345148 40.7850000000000037   T   T   F
  7.9500000000000002  8.2618823521035445 40.7850000000000037   T   T   F
 -3.1800000000000002  5.5079215680690297 13.5950000000000006   F   F   F
 -3.1800000000000002  5.5079215680690297 40.7850000000000037   T   T   F
 -4.7700000000000005  8.2618823521035445 13.5950000000000006   F   F   F
  9.5400000000000009  5.5079215680690297 40.7850000000000037   T   T   F
 -4.7700000000000005  8.2618823521035445 40.7850000000000037   T   T   F
  7.9500000000000002  8.2618823521035445 13.5950000000000006   F   F   F
  9.5400000000000009  5.5079215680690297 13.5950000000000006   F   F   F
 -6.3600000000000003 11.0158431361380593 40.7850000000000037   T   T   F
 -6.3600000000000003 11.0158431361380593 13.5950000000000006   F   F   F
 11.1300000000000008  2.7539607840345148 40.7850000000000037   T   T   F
 14.3100000000000005  0.9179869280115049 12.0000000000000000   F   F   F
  9.5400000000000009  3.6719477120460198 39.1899999999999977   T   T   F
  9.5400000000000009  3.6719477120460198 42.3800000000000026   T   T   F
  9.5400000000000009  9.1798692801150494 42.3800000000000026   T   T   F
  9.5400000000000009  9.1798692801150494 39.1899999999999977   T   T   F
  9.5400000000000009  3.6719477120460198 12.0000000000000000   F   F   F
  9.5400000000000009  3.6719477120460198 15.1900000000000013   F   F   F
 11.1300000000000008  6.4259084960805346 15.1900000000000013   F   F   F
 11.1300000000000008  0.9179869280115049 39.1899999999999977   T   T   F
 11.1300000000000008  0.9179869280115049 42.3800000000000026   T   T   F
 14.3100000000000005  0.9179869280115049 42.3800000000000026   T   T   F
  7.9500000000000002 11.9338300641495643 12.0000000000000000   F   F   F
 11.1300000000000008  0.9179869280115049 12.0000000000000000   F   F   F
 14.3100000000000005  0.9179869280115049 39.1899999999999977   T   T   F
 11.1300000000000008  0.9179869280115049 15.1900000000000013   F   F   F
 12.7200000000000006  3.6719477120460198 12.0000000000000000   F   F   F
 12.7200000000000006  3.6719477120460198 42.3800000000000026   T   T   F
  7.9500000000000002 11.9338300641495643 15.1900000000000013   F   F   F
  7.9500000000000011  6.4259084960805346 15.1900000000000013   F   F   F
  7.9500000000000011  6.4259084960805346 12.0000000000000000   F   F   F
  4.7700000000000005 11.9338300641495643 12.0000000000000000   F   F   F
  4.7700000000000005 11.9338300641495643 42.3800000000000026   T   T   F
  4.7700000000000005 11.9338300641495643 15.1900000000000013   F   F   F
 11.1300000000000008  6.4259084960805346 12.0000000000000000   F   F   F
  4.7700000000000005 11.9338300641495643 39.1899999999999977   T   T   F
  6.3600000000000003  9.1798692801150494 39.1899999999999977   T   T   F
  6.3600000000000003  9.1798692801150494 42.3800000000000026   T   T   F
 11.1300000000000008  6.4259084960805346 42.3800000000000026   T   T   F
  6.3600000000000003  9.1798692801150494 12.0000000000000000   F   F   F
 11.1300000000000008  6.4259084960805346 39.1899999999999977   T   T   F
  6.3600000000000003  9.1798692801150494 15.1900000000000013   F   F   F
 12.7200000000000006  3.6719477120460198 39.1899999999999977   T   T   F
 12.7200000000000006  3.6719477120460198 15.1900000000000013   F   F   F
  7.9500000000000011  6.4259084960805346 39.1899999999999977   T   T   F
  7.9500000000000011  6.4259084960805346 42.3800000000000026   T   T   F
  9.5400000000000009  9.1798692801150494 15.1900000000000013   F   F   F
 14.3100000000000005  0.9179869280115049 15.1900000000000013   F   F   F
  9.5400000000000009  9.1798692801150494 12.0000000000000000   F   F   F
  1.5900000000000001 11.9338300641495643 39.1899999999999977   T   T   F
  7.9500000000000002  0.9179869280115049 42.3800000000000026   T   T   F
  1.5900000000000001 11.9338300641495643 12.0000000000000000   F   F   F
  3.1800000000000002  3.6719477120460198 12.0000000000000000   F   F   F
  3.1800000000000002  3.6719477120460198 15.1900000000000013   F   F   F
  4.7700000000000005  0.9179869280115049 39.1899999999999977   T   T   F
  4.7700000000000005  0.9179869280115049 42.3800000000000026   T   T   F
  4.7700000000000005  0.9179869280115049 12.0000000000000000   F   F   F
  4.7700000000000005  0.9179869280115049 15.1900000000000013   F   F   F
 -4.7700000000000005 11.9338300641495643 39.1899999999999977   T   T   F
 -4.7700000000000005 11.9338300641495643 42.3800000000000026   T   T   F
 -4.7700000000000005 11.9338300641495643 12.0000000000000000   F   F   F
 -4.7700000000000005 11.9338300641495643 15.1900000000000013   F   F   F
 -3.1800000000000006  9.1798692801150494 39.1899999999999977   T   T   F
 -3.1800000000000006  9.1798692801150494 42.3800000000000026   T   T   F
  3.1800000000000002  3.6719477120460198 42.3800000000000026   T   T   F
 -3.1800000000000006  9.1798692801150494 12.0000000000000000   F   F   F
 -1.5900000000000001  6.4259084960805346 39.1899999999999977   T   T   F
 -1.5900000000000001  6.4259084960805346 42.3800000000000026   T   T   F
 -1.5900000000000001  6.4259084960805346 12.0000000000000000   F   F   F
 -1.5900000000000001  6.4259084960805346 15.1900000000000013   F   F   F
  0.0000000000000000  3.6719477120460198 39.1899999999999977   T   T   F
  0.0000000000000000  3.6719477120460198 42.3800000000000026   T   T   F
  0.0000000000000000  3.6719477120460198 12.0000000000000000   F   F   F
  0.0000000000000000  3.6719477120460198 15.1900000000000013   F   F   F
  1.5900000000000001  0.9179869280115049 39.1899999999999977   T   T   F
  1.5900000000000001  0.9179869280115049 42.3800000000000026   T   T   F
  1.5900000000000001  0.9179869280115049 12.0000000000000000   F   F   F
  1.5900000000000001  0.9179869280115049 15.1900000000000013   F   F   F
 -3.1800000000000006  9.1798692801150494 15.1900000000000013   F   F   F
  3.1800000000000002  3.6719477120460198 39.1899999999999977   T   T   F
  1.5900000000000001  6.4259084960805346 15.1900000000000013   F   F   F
  1.5900000000000001  6.4259084960805346 12.0000000000000000   F   F   F
  1.5900000000000001 11.9338300641495643 15.1900000000000013   F   F   F
  3.1799999999999997  9.1798692801150494 39.1899999999999977   T   T   F
  3.1799999999999997  9.1798692801150494 42.3800000000000026   T   T   F
  3.1799999999999997  9.1798692801150494 12.0000000000000000   F   F   F
  3.1799999999999997  9.1798692801150494 15.1900000000000013   F   F   F
  4.7700000000000005  6.4259084960805346 39.1899999999999977   T   T   F
  4.7700000000000005  6.4259084960805346 42.3800000000000026   T   T   F
  4.7700000000000005  6.4259084960805346 12.0000000000000000   F   F   F
  4.7700000000000005  6.4259084960805346 15.1900000000000013   F   F   F
  6.3600000000000003  3.6719477120460198 39.1899999999999977   T   T   F
  6.3600000000000003  3.6719477120460198 42.3800000000000026   T   T   F
  6.3600000000000003  3.6719477120460198 12.0000000000000000   F   F   F
  6.3600000000000003  3.6719477120460198 15.1900000000000013   F   F   F
  7.9500000000000002  0.9179869280115049 39.1899999999999977   T   T   F
  7.9500000000000002 11.9338300641495643 42.3800000000000026   T   T   F
  7.9500000000000002  0.9179869280115049 12.0000000000000000   F   F   F
  7.9500000000000002  0.9179869280115049 15.1900000000000013   F   F   F
 -1.5900000000000001 11.9338300641495643 39.1899999999999977   T   T   F
 -1.5900000000000001 11.9338300641495643 42.3800000000000026   T   T   F
 -1.5900000000000001 11.9338300641495643 12.0000000000000000   F   F   F
 -1.5900000000000001 11.9338300641495643 15.1900000000000013   F   F   F
 -0.0000000000000002  9.1798692801150494 39.1899999999999977   T   T   F
 -0.0000000000000002  9.1798692801150494 42.3800000000000026   T   T   F
 -0.0000000000000002  9.1798692801150494 12.0000000000000000   F   F   F
 -0.0000000000000002  9.1798692801150494 15.1900000000000013   F   F   F
  1.5900000000000001  6.4259084960805346 39.1899999999999977   T   T   F
  1.5900000000000001  6.4259084960805346 42.3800000000000026   T   T   F
  1.5900000000000001 11.9338300641495643 42.3800000000000026   T   T   F
  7.9500000000000002 11.9338300641495643 39.1899999999999977   T   T   F
