 C Cr  H Mo  S 
 1.0000000000000000
    15.9000000000000004    0.0000000000000000    0.0000000000000000
    -7.9500000000000037   13.7698039201725724    0.0000000000000000
     0.0000000000000000    0.0000000000000000   32.3799999999999955
  10   1  10  50 100
Selective dynamics
Cartesian
  5.2954840156955809  5.1494081514003742 15.7148324090974807   T   T   F
  4.0040106567216078  5.2824784259237667 16.2958670824513838   T   T   F
  5.6713777790375604  6.4067870110537708 15.1545514004623616   T   T   F
  4.5999124536756062  7.3399088042403324 15.3937914233532496   T   T   F
  3.5602363630545848  6.6321291927051407 16.1043986449149124   T   T   F
  2.7689839989446732  4.3616410516894302 13.0857417507797784   T   T   F
  2.6382281224725568  6.6346825236062195 12.6110942235980712   T   T   F
  1.9734137260165401  5.5512586458928048 13.2847605018345867   T   T   F
  3.8202287001549440  6.1197499668139761 12.0027547708052289   T   T   F
  3.9083334635263651  4.7288461664294257 12.2928105928791673   T   T   F
  3.8498537533812320  5.8037566735262871 14.1847023480610392   T   T   F
  2.6187831061954281  7.0511617022893933 16.4513829674880725   T   T   F
  1.0255095608097120  5.6107921771944760 13.8137774590938083   T   T   F
  2.5344487335155250  3.3617600765190248 13.4432641099270587   T   T   F
  2.3097325356304754  7.6709094008916239 12.5862685547152839   T   T   F
  4.5666504086607169  6.7063308420164960 11.4704154294779954   T   T   F
  3.4320542437324297  4.4832755351954487 16.7618387692098203   T   T   F
  5.8690318360404889  4.2269370952134473 15.6508500689500902   T   T   F
  6.6013042875864638  6.6162453674176449 14.6307438578662623   T   T   F
  4.5950781077008811  8.3938725285976190 15.1266259544535977   T   T   F
  4.7206008084870943  4.0693141351691278 11.9939745613902140   T   T   F
  4.7700000000000005  8.2618823521035445 21.2850000000000001   T   T   F
 -3.1800000000000002 11.0158431361380593  7.0949999999999998   F   F   F
 -1.5900000000000003  8.2618823521035445 21.2850000000000001   T   T   F
  3.1800000000000006 11.0158431361380593  7.0949999999999998   F   F   F
 -1.5900000000000003  8.2618823521035445  7.0949999999999998   F   F   F
  3.1800000000000006 11.0158431361380593 21.2850000000000001   T   T   F
  0.0000000000000000  5.5079215680690297  7.0949999999999998   F   F   F
 12.7200000000000006  0.0000000000000000  7.0949999999999998   F   F   F
  1.5900000000000001  2.7539607840345148 21.2850000000000001   T   T   F
 12.7200000000000006  0.0000000000000000 21.2850000000000001   T   T   F
  1.5900000000000001  2.7539607840345148  7.0949999999999998   F   F   F
 -3.1800000000000002 11.0158431361380593 21.2850000000000001   T   T   F
  0.0000000000000000  5.5079215680690297 21.2850000000000001   T   T   F
  4.7700000000000005  8.2618823521035445  7.0949999999999998   F   F   F
  1.5899999999999999  8.2618823521035445  7.0949999999999998   F   F   F
  6.3600000000000003  0.0000000000000000 21.2850000000000001   T   T   F
  6.3600000000000012  5.5079215680690297 21.2850000000000001   T   T   F
  4.7700000000000005  2.7539607840345148  7.0949999999999998   F   F   F
  6.3600000000000012  5.5079215680690297  7.0949999999999998   F   F   F
  4.7700000000000005  2.7539607840345148 21.2850000000000001   T   T   F
  3.1800000000000002  5.5079215680690297  7.0949999999999998   F   F   F
  7.9500000000000011  2.7539607840345148 21.2850000000000001   T   T   F
  3.1800000000000002  5.5079215680690297 21.2850000000000001   T   T   F
  7.9500000000000011  2.7539607840345148  7.0949999999999998   F   F   F
  0.0000000000000000 11.0158431361380593 21.2850000000000001   T   T   F
  1.5899999999999999  8.2618823521035445 21.2850000000000001   T   T   F
  9.5400000000000009  0.0000000000000000 21.2850000000000001   T   T   F
  0.0000000000000000 11.0158431361380593  7.0949999999999998   F   F   F
  9.5400000000000009  0.0000000000000000  7.0949999999999998   F   F   F
  6.3600000000000003  0.0000000000000000  7.0949999999999998   F   F   F
 11.1300000000000008  2.7539607840345148  7.0949999999999998   F   F   F
  3.1800000000000002  0.0000000000000000 21.2850000000000001   T   T   F
  3.1800000000000002  0.0000000000000000  7.0949999999999998   F   F   F
  0.0000000000000000  0.0000000000000000  7.0949999999999998   F   F   F
  6.3600000000000003 11.0158431361380593 21.2850000000000001   T   T   F
  0.0000000000000000  0.0000000000000000 21.2850000000000001   T   T   F
  6.3600000000000003 11.0158431361380593  7.0949999999999998   F   F   F
 -1.5900000000000001  2.7539607840345148  7.0949999999999998   F   F   F
 -1.5900000000000001  2.7539607840345148 21.2850000000000001   T   T   F
  7.9500000000000002  8.2618823521035445 21.2850000000000001   T   T   F
 -3.1800000000000002  5.5079215680690297  7.0949999999999998   F   F   F
 -3.1800000000000002  5.5079215680690297 21.2850000000000001   T   T   F
 -4.7700000000000005  8.2618823521035445  7.0949999999999998   F   F   F
  9.5400000000000009  5.5079215680690297 21.2850000000000001   T   T   F
 -4.7700000000000005  8.2618823521035445 21.2850000000000001   T   T   F
  7.9500000000000002  8.2618823521035445  7.0949999999999998   F   F   F
  9.5400000000000009  5.5079215680690297  7.0949999999999998   F   F   F
 -6.3600000000000003 11.0158431361380593 21.2850000000000001   T   T   F
 -6.3600000000000003 11.0158431361380593  7.0949999999999998   F   F   F
 11.1300000000000008  2.7539607840345148 21.2850000000000001   T   T   F
 14.3100000000000005  0.9179869280115049  5.5000000000000000   F   F   F
  9.5400000000000009  3.6719477120460198 19.6899999999999977   T   T   F
  9.5400000000000009  3.6719477120460198 22.8799999999999990   T   T   F
  9.5400000000000009  9.1798692801150494 22.8799999999999990   T   T   F
  9.5400000000000009  9.1798692801150494 19.6899999999999977   T   T   F
  9.5400000000000009  3.6719477120460198  5.5000000000000000   F   F   F
  9.5400000000000009  3.6719477120460198  8.6899999999999995   F   F   F
 11.1300000000000008  6.4259084960805346  8.6899999999999995   F   F   F
 11.1300000000000008  0.9179869280115049 19.6899999999999977   T   T   F
 11.1300000000000008  0.9179869280115049 22.8799999999999990   T   T   F
 14.3100000000000005  0.9179869280115049 22.8799999999999990   T   T   F
  7.9500000000000002 11.9338300641495643  5.5000000000000000   F   F   F
 11.1300000000000008  0.9179869280115049  5.5000000000000000   F   F   F
 14.3100000000000005  0.9179869280115049 19.6899999999999977   T   T   F
 11.1300000000000008  0.9179869280115049  8.6899999999999995   F   F   F
 12.7200000000000006  3.6719477120460198  5.5000000000000000   F   F   F
 12.7200000000000006  3.6719477120460198 22.8799999999999990   T   T   F
  7.9500000000000002 11.9338300641495643  8.6899999999999995   F   F   F
  7.9500000000000011  6.4259084960805346  8.6899999999999995   F   F   F
  7.9500000000000011  6.4259084960805346  5.5000000000000000   F   F   F
  4.7700000000000005 11.9338300641495643  5.5000000000000000   F   F   F
  4.7700000000000005 11.9338300641495643 22.8799999999999990   T   T   F
  4.7700000000000005 11.9338300641495643  8.6899999999999995   F   F   F
 11.1300000000000008  6.4259084960805346  5.5000000000000000   F   F   F
  4.7700000000000005 11.9338300641495643 19.6899999999999977   T   T   F
  6.3600000000000003  9.1798692801150494 19.6899999999999977   T   T   F
  6.3600000000000003  9.1798692801150494 22.8799999999999990   T   T   F
 11.1300000000000008  6.4259084960805346 22.8799999999999990   T   T   F
  6.3600000000000003  9.1798692801150494  5.5000000000000000   F   F   F
 11.1300000000000008  6.4259084960805346 19.6899999999999977   T   T   F
  6.3600000000000003  9.1798692801150494  8.6899999999999995   F   F   F
 12.7200000000000006  3.6719477120460198 19.6899999999999977   T   T   F
 12.7200000000000006  3.6719477120460198  8.6899999999999995   F   F   F
  7.9500000000000011  6.4259084960805346 19.6899999999999977   T   T   F
  7.9500000000000011  6.4259084960805346 22.8799999999999990   T   T   F
  9.5400000000000009  9.1798692801150494  8.6899999999999995   F   F   F
 14.3100000000000005  0.9179869280115049  8.6899999999999995   F   F   F
  9.5400000000000009  9.1798692801150494  5.5000000000000000   F   F   F
  1.5900000000000001 11.9338300641495643 19.6899999999999977   T   T   F
  7.9500000000000002  0.9179869280115049 22.8799999999999990   T   T   F
  1.5900000000000001 11.9338300641495643  5.5000000000000000   F   F   F
  3.1800000000000002  3.6719477120460198  5.5000000000000000   F   F   F
  3.1800000000000002  3.6719477120460198  8.6899999999999995   F   F   F
  4.7700000000000005  0.9179869280115049 19.6899999999999977   T   T   F
  4.7700000000000005  0.9179869280115049 22.8799999999999990   T   T   F
  4.7700000000000005  0.9179869280115049  5.5000000000000000   F   F   F
  4.7700000000000005  0.9179869280115049  8.6899999999999995   F   F   F
 -4.7700000000000005 11.9338300641495643 19.6899999999999977   T   T   F
 -4.7700000000000005 11.9338300641495643 22.8799999999999990   T   T   F
 -4.7700000000000005 11.9338300641495643  5.5000000000000000   F   F   F
 -4.7700000000000005 11.9338300641495643  8.6899999999999995   F   F   F
 -3.1800000000000006  9.1798692801150494 19.6899999999999977   T   T   F
 -3.1800000000000006  9.1798692801150494 22.8799999999999990   T   T   F
  3.1800000000000002  3.6719477120460198 22.8799999999999990   T   T   F
 -3.1800000000000006  9.1798692801150494  5.5000000000000000   F   F   F
 -1.5900000000000001  6.4259084960805346 19.6899999999999977   T   T   F
 -1.5900000000000001  6.4259084960805346 22.8799999999999990   T   T   F
 -1.5900000000000001  6.4259084960805346  5.5000000000000000   F   F   F
 -1.5900000000000001  6.4259084960805346  8.6899999999999995   F   F   F
  0.0000000000000000  3.6719477120460198 19.6899999999999977   T   T   F
  0.0000000000000000  3.6719477120460198 22.8799999999999990   T   T   F
  0.0000000000000000  3.6719477120460198  5.5000000000000000   F   F   F
  0.0000000000000000  3.6719477120460198  8.6899999999999995   F   F   F
  1.5900000000000001  0.9179869280115049 19.6899999999999977   T   T   F
  1.5900000000000001  0.9179869280115049 22.8799999999999990   T   T   F
  1.5900000000000001  0.9179869280115049  5.5000000000000000   F   F   F
  1.5900000000000001  0.9179869280115049  8.6899999999999995   F   F   F
 -3.1800000000000006  9.1798692801150494  8.6899999999999995   F   F   F
  3.1800000000000002  3.6719477120460198 19.6899999999999977   T   T   F
  1.5900000000000001  6.4259084960805346  8.6899999999999995   F   F   F
  1.5900000000000001  6.4259084960805346  5.5000000000000000   F   F   F
  1.5900000000000001 11.9338300641495643  8.6899999999999995   F   F   F
  3.1799999999999997  9.1798692801150494 19.6899999999999977   T   T   F
  3.1799999999999997  9.1798692801150494 22.8799999999999990   T   T   F
  3.1799999999999997  9.1798692801150494  5.5000000000000000   F   F   F
  3.1799999999999997  9.1798692801150494  8.6899999999999995   F   F   F
  4.7700000000000005  6.4259084960805346 19.6899999999999977   T   T   F
  4.7700000000000005  6.4259084960805346 22.8799999999999990   T   T   F
  4.7700000000000005  6.4259084960805346  5.5000000000000000   F   F   F
  4.7700000000000005  6.4259084960805346  8.6899999999999995   F   F   F
  6.3600000000000003  3.6719477120460198 19.6899999999999977   T   T   F
  6.3600000000000003  3.6719477120460198 22.8799999999999990   T   T   F
  6.3600000000000003  3.6719477120460198  5.5000000000000000   F   F   F
  6.3600000000000003  3.6719477120460198  8.6899999999999995   F   F   F
  7.9500000000000002  0.9179869280115049 19.6899999999999977   T   T   F
  7.9500000000000002 11.9338300641495643 22.8799999999999990   T   T   F
  7.9500000000000002  0.9179869280115049  5.5000000000000000   F   F   F
  7.9500000000000002  0.9179869280115049  8.6899999999999995   F   F   F
 -1.5900000000000001 11.9338300641495643 19.6899999999999977   T   T   F
 -1.5900000000000001 11.9338300641495643 22.8799999999999990   T   T   F
 -1.5900000000000001 11.9338300641495643  5.5000000000000000   F   F   F
 -1.5900000000000001 11.9338300641495643  8.6899999999999995   F   F   F
 -0.0000000000000002  9.1798692801150494 19.6899999999999977   T   T   F
 -0.0000000000000002  9.1798692801150494 22.8799999999999990   T   T   F
 -0.0000000000000002  9.1798692801150494  5.5000000000000000   F   F   F
 -0.0000000000000002  9.1798692801150494  8.6899999999999995   F   F   F
  1.5900000000000001  6.4259084960805346 19.6899999999999977   T   T   F
  1.5900000000000001  6.4259084960805346 22.8799999999999990   T   T   F
  1.5900000000000001 11.9338300641495643 22.8799999999999990   T   T   F
  7.9500000000000002 11.9338300641495643 19.6899999999999977   T   T   F
