 C Cr  H Mo  S                          
   1.00000000000000     
     9.5709464550000014    0.0000000000000000    0.0000000000000000
    -6.3806280268000020   11.0515787236000005    0.0000000000000000
     0.0000000000000000    0.0000000000000000   34.8802625070458063
   C    Cr   H    Mo   S 
    10     1    10    24    48
Direct
  0.3813712996703483  0.7721381736683720  0.9900041545709448
  0.4503531892020172  0.7205641192113766  0.9656715715966030
  0.2571330324117573  0.6768044373736374  0.0125138061260711
  0.2502826287637338  0.5650578507658004  0.0015826615917819
  0.3705071337792095  0.5935033386438481  0.9724341296415161
  0.1010740559615306  0.6471630312754989  0.8969042974459580
  0.9525534752870638  0.4997470493676580  0.9421266152049157
  0.0458843750043994  0.5247381326842900  0.9074799494548301
  0.9520852934905835  0.6091420458078476  0.9526947165460588
  0.0445160342250381  0.6993825897881772  0.9244421223082440
  0.1870866800420835  0.6355172110749229  0.9549126460586256
  0.3951138163709778  0.5292919567652852  0.9577193365676980
  0.0714455586067179  0.4619559693544664  0.8921429765897382
  0.8898533399253705  0.6203191192842272  0.9770677860848674
  0.8900139564258455  0.4134366374002335  0.9570341004012315
  0.1804032101859024  0.6946557161185789  0.8729290634390445
  0.5426580151074959  0.7689400501304654  0.9440680643714153
  0.4145765249608158  0.8670189456825880  0.9907194788850949
  0.1846312426078137  0.6874154918579246  0.0345050692790606
  0.1720107398500485  0.4762578717478999  0.0139358810883900
  0.0706665913386808  0.7927178808868233  0.9245467538127888
  0.5554760921669076  0.0836184179974334  0.2487867243966592
  0.5554770524470558  0.3336217592795122  0.2487872123036643
  0.4451683976114128  0.4166383230781745  0.7585021778648477
  0.5554695976732922  0.5836185965929942  0.2487863395346186
  0.4452779910358325  0.6666424350819671  0.7584458514173628
  0.5554731283328677  0.8336163829594401  0.2487861883317231
  0.4452188219271419  0.9166208424073555  0.7584731822013719
  0.8887914466059886  0.3336262509557273  0.2487942822945163
  0.7785046351583907  0.1666205621848829  0.7584989976414374
  0.7786024204299228  0.4166747139260135  0.7585428221870588
  0.8887870828846507  0.5836291890359948  0.2487935608527941
  0.7786027959482462  0.6666019651341187  0.7584998077547649
  0.8887845489197648  0.8336231487171450  0.2487937746670983
  0.7785255065203068  0.9166018576540017  0.7584911850524384
  0.1117375178565338  0.9166390625237629  0.7584968294034573
  0.8887835046191371  0.0836220112942242  0.2487940373828210
  0.2221289848644538  0.8336220724597091  0.2487864956465703
  0.4451471085012916  0.1666296194852445  0.7585005070922258
  0.2221351788530548  0.5836239734997547  0.2487859039689003
  0.1117241438725347  0.4165300140969572  0.7584897145941255
  0.2221234307852870  0.3336196146651505  0.2487874442714137
  0.2221273317838565  0.0836185032766583  0.2487867706738411
  0.1117801442491784  0.1666028981267297  0.7584940039710854
  0.1117155279466341  0.6665406882546255  0.7585662559303380
  0.7770620227200399  0.1661607578009865  0.2933613686920435
  0.8901962579186057  0.0840452127472267  0.8030596599835061
  0.7770957025651749  0.1661725511606607  0.2042277406331589
  0.8901900084745246  0.0840717057731957  0.7139288068768024
  0.2235271841781004  0.0840828570484027  0.7139244412290556
  0.1103935760838758  0.1661556953339780  0.2042273759228212
  0.7770617900251671  0.4161633694032773  0.2933617409567744
  0.8902586130427121  0.3340716810826269  0.8031078638151510
  0.1103998034651854  0.6661593340456404  0.2042253508455460
  0.5569450637732766  0.8341004496004616  0.7138962738721656
  0.8901432674817757  0.3340757210738240  0.7139475838882251
  0.2235423463969639  0.0841133341515786  0.8030550437690847
  0.1104158113955741  0.1661654968514388  0.2933631983261866
  0.7770579715255045  0.6661609539275268  0.2933612671807812
  0.8901600970394425  0.5840719994101565  0.8031527424955650
  0.7770908058711726  0.6661725609695697  0.2042264153908909
  0.8903299494283891  0.5840522233711020  0.7139580592670244
  0.7770570751192363  0.9161578019802015  0.2933618611117160
  0.8901993813285675  0.8340465724238281  0.8030713813689000
  0.7770946462832969  0.4161746352627324  0.2042276691502725
  0.4437375838225199  0.9161489217415982  0.2042199299648483
  0.4437543918262841  0.9161586784049141  0.2933546790653965
  0.2234180371550793  0.5840508728386392  0.7139398480859949
  0.2237911191024765  0.5839176058021661  0.8030188355383411
  0.1104172259840903  0.9161668728411746  0.2933625621757097
  0.2236908650257950  0.8342504357510563  0.8030317787193042
  0.1103941824109161  0.9161556736804299  0.2042271709275371
  0.2234334739087162  0.8339716581901633  0.7139557673399110
  0.1104217444717647  0.6661697091954462  0.2933620553582222
  0.7770889977395652  0.9161681427461014  0.2042260285462613
  0.4437512227918263  0.1661584035824383  0.2933549418105956
  0.5568722332012384  0.0840687990420516  0.8030492009120984
  0.4437354054554310  0.1661506959157496  0.2042217470082082
  0.5569040816450291  0.0841165060742516  0.7139240803628132
  0.4437516089069430  0.4161608637872982  0.2933553329227943
  0.5568649600231792  0.3341004939740547  0.8030726404994885
  0.4437342114622038  0.4161512481630957  0.2042207094367935
  0.5569962321568431  0.3341333417908792  0.7139505498624052
  0.2235386710753808  0.3340641085333532  0.7139244937972010
  0.1103996926429288  0.4161591039450901  0.2042267992643498
  0.4437517152570905  0.6661590358159590  0.2933552581631397
  0.5569171464779806  0.5841089795005402  0.8030528403349033
  0.4437349512871029  0.6661504011536413  0.2042179403201531
  0.5569837407249064  0.5840336270139002  0.7139073566571016
  0.2235511085026646  0.3340663820470913  0.8030620075060301
  0.1104220340751751  0.4161703766235395  0.2933627292689109
  0.5568406694310879  0.8340078563110779  0.8030454255894227
  0.8902052181741132  0.8340320224107985  0.7139280054135969
 
  0.00000000E+00  0.00000000E+00  0.00000000E+00
  0.00000000E+00  0.00000000E+00  0.00000000E+00
  0.00000000E+00  0.00000000E+00  0.00000000E+00
  0.00000000E+00  0.00000000E+00  0.00000000E+00
  0.00000000E+00  0.00000000E+00  0.00000000E+00
  0.00000000E+00  0.00000000E+00  0.00000000E+00
  0.00000000E+00  0.00000000E+00  0.00000000E+00
  0.00000000E+00  0.00000000E+00  0.00000000E+00
  0.00000000E+00  0.00000000E+00  0.00000000E+00
  0.00000000E+00  0.00000000E+00  0.00000000E+00
  0.00000000E+00  0.00000000E+00  0.00000000E+00
  0.00000000E+00  0.00000000E+00  0.00000000E+00
  0.00000000E+00  0.00000000E+00  0.00000000E+00
  0.00000000E+00  0.00000000E+00  0.00000000E+00
  0.00000000E+00  0.00000000E+00  0.00000000E+00
  0.00000000E+00  0.00000000E+00  0.00000000E+00
  0.00000000E+00  0.00000000E+00  0.00000000E+00
  0.00000000E+00  0.00000000E+00  0.00000000E+00
  0.00000000E+00  0.00000000E+00  0.00000000E+00
  0.00000000E+00  0.00000000E+00  0.00000000E+00
  0.00000000E+00  0.00000000E+00  0.00000000E+00
  0.00000000E+00  0.00000000E+00  0.00000000E+00
  0.00000000E+00  0.00000000E+00  0.00000000E+00
  0.00000000E+00  0.00000000E+00  0.00000000E+00
  0.00000000E+00  0.00000000E+00  0.00000000E+00
  0.00000000E+00  0.00000000E+00  0.00000000E+00
  0.00000000E+00  0.00000000E+00  0.00000000E+00
  0.00000000E+00  0.00000000E+00  0.00000000E+00
  0.00000000E+00  0.00000000E+00  0.00000000E+00
  0.00000000E+00  0.00000000E+00  0.00000000E+00
  0.00000000E+00  0.00000000E+00  0.00000000E+00
  0.00000000E+00  0.00000000E+00  0.00000000E+00
  0.00000000E+00  0.00000000E+00  0.00000000E+00
  0.00000000E+00  0.00000000E+00  0.00000000E+00
  0.00000000E+00  0.00000000E+00  0.00000000E+00
  0.00000000E+00  0.00000000E+00  0.00000000E+00
  0.00000000E+00  0.00000000E+00  0.00000000E+00
  0.00000000E+00  0.00000000E+00  0.00000000E+00
  0.00000000E+00  0.00000000E+00  0.00000000E+00
  0.00000000E+00  0.00000000E+00  0.00000000E+00
  0.00000000E+00  0.00000000E+00  0.00000000E+00
  0.00000000E+00  0.00000000E+00  0.00000000E+00
  0.00000000E+00  0.00000000E+00  0.00000000E+00
  0.00000000E+00  0.00000000E+00  0.00000000E+00
  0.00000000E+00  0.00000000E+00  0.00000000E+00
  0.00000000E+00  0.00000000E+00  0.00000000E+00
  0.00000000E+00  0.00000000E+00  0.00000000E+00
  0.00000000E+00  0.00000000E+00  0.00000000E+00
  0.00000000E+00  0.00000000E+00  0.00000000E+00
  0.00000000E+00  0.00000000E+00  0.00000000E+00
  0.00000000E+00  0.00000000E+00  0.00000000E+00
  0.00000000E+00  0.00000000E+00  0.00000000E+00
  0.00000000E+00  0.00000000E+00  0.00000000E+00
  0.00000000E+00  0.00000000E+00  0.00000000E+00
  0.00000000E+00  0.00000000E+00  0.00000000E+00
  0.00000000E+00  0.00000000E+00  0.00000000E+00
  0.00000000E+00  0.00000000E+00  0.00000000E+00
  0.00000000E+00  0.00000000E+00  0.00000000E+00
  0.00000000E+00  0.00000000E+00  0.00000000E+00
  0.00000000E+00  0.00000000E+00  0.00000000E+00
  0.00000000E+00  0.00000000E+00  0.00000000E+00
  0.00000000E+00  0.00000000E+00  0.00000000E+00
  0.00000000E+00  0.00000000E+00  0.00000000E+00
  0.00000000E+00  0.00000000E+00  0.00000000E+00
  0.00000000E+00  0.00000000E+00  0.00000000E+00
  0.00000000E+00  0.00000000E+00  0.00000000E+00
  0.00000000E+00  0.00000000E+00  0.00000000E+00
  0.00000000E+00  0.00000000E+00  0.00000000E+00
  0.00000000E+00  0.00000000E+00  0.00000000E+00
  0.00000000E+00  0.00000000E+00  0.00000000E+00
  0.00000000E+00  0.00000000E+00  0.00000000E+00
  0.00000000E+00  0.00000000E+00  0.00000000E+00
  0.00000000E+00  0.00000000E+00  0.00000000E+00
  0.00000000E+00  0.00000000E+00  0.00000000E+00
  0.00000000E+00  0.00000000E+00  0.00000000E+00
  0.00000000E+00  0.00000000E+00  0.00000000E+00
  0.00000000E+00  0.00000000E+00  0.00000000E+00
  0.00000000E+00  0.00000000E+00  0.00000000E+00
  0.00000000E+00  0.00000000E+00  0.00000000E+00
  0.00000000E+00  0.00000000E+00  0.00000000E+00
  0.00000000E+00  0.00000000E+00  0.00000000E+00
  0.00000000E+00  0.00000000E+00  0.00000000E+00
  0.00000000E+00  0.00000000E+00  0.00000000E+00
  0.00000000E+00  0.00000000E+00  0.00000000E+00
  0.00000000E+00  0.00000000E+00  0.00000000E+00
  0.00000000E+00  0.00000000E+00  0.00000000E+00
  0.00000000E+00  0.00000000E+00  0.00000000E+00
  0.00000000E+00  0.00000000E+00  0.00000000E+00
  0.00000000E+00  0.00000000E+00  0.00000000E+00
  0.00000000E+00  0.00000000E+00  0.00000000E+00
  0.00000000E+00  0.00000000E+00  0.00000000E+00
  0.00000000E+00  0.00000000E+00  0.00000000E+00
  0.00000000E+00  0.00000000E+00  0.00000000E+00
