 C Cr  H Mo  S                          
   1.00000000000000     
    15.9000000000000004    0.0000000000000000    0.0000000000000000
    -7.9500000000000037   13.7698039201725724    0.0000000000000000
     0.0000000000000000    0.0000000000000000   32.3799999999999955
   C    Cr   H    Mo   S 
    10     1    10    50   100
Selective dynamics
Direct
  0.4512580580360647  0.4296036431088009  0.5065885916899830   T   T   F
  0.4935441288381801  0.5244902880423671  0.4894109923337169   T   T   F
  0.5053086143946528  0.3854576898616471  0.4927182000217414   T   T   F
  0.5827114361050304  0.4539808441705011  0.4666007553337579   T   T   F
  0.5749200829295561  0.5405949680763479  0.4645735930178461   T   T   F
  0.3324193012173496  0.4105891806005386  0.4049764688642838   T   T   F
  0.4577649337779756  0.3993093979839502  0.3733686252047832   T   T   F
  0.4215317225678049  0.4642816207268078  0.3818459666110243   T   T   F
  0.3918624437273365  0.3070544138349126  0.3908320462283896   T   T   F
  0.3150663134566564  0.3135384776262711  0.4103403191239678   T   T   F
  0.4509878561409568  0.4210648593788812  0.4386352527549420   T   T   F
  0.6229793911910432  0.6067589380034898  0.4477835776082557   T   T   F
  0.4539148918218925  0.5392741481147931  0.3716504750671632   T   T   F
  0.2856024851509936  0.4378329068578294  0.4156023007994278   T   T   F
  0.5245471012481483  0.4175990643567938  0.3570554974696520   T   T   F
  0.4015265727876543  0.2439511360073202  0.3911761112307701   T   T   F
  0.4665129807899878  0.5747678109140189  0.4932703414394126   T   T   F
  0.3858658483822322  0.3949225953312620  0.5254304244774559   T   T   F
  0.4900077629081373  0.3125312390606916  0.5003711236727781   T   T   F
  0.6385654324290452  0.4434969758430570  0.4521903058435370   T   T   F
  0.2551054544040453  0.2554792215533489  0.4273413689293974   T   T   F
  0.5999999951945436  0.5999999895572675  0.6573502161828273   T   T   F
  0.2000000000000028  0.7999999999999972  0.2191167387276067   F   F   F
  0.2000000037670993  0.6000000009464649  0.6573502161828273   T   T   F
  0.6000000000000014  0.7999999999999972  0.2191167387276067   F   F   F
  0.2000000000000028  0.6000000000000014  0.2191167387276067   F   F   F
  0.5999999989326913  0.8000000024165722  0.6573502161828273   T   T   F
  0.2000000000000028  0.3999999999999986  0.2191167387276067   F   F   F
  0.7999999999999972  0.0000000000000000  0.2191167387276067   F   F   F
  0.1999999921754768  0.1999999980218982  0.6573502161828273   T   T   F
  0.7999999987753029  0.0000000015627309  0.6573502161828273   T   T   F
  0.2000000000000028  0.2000000000000028  0.2191167387276067   F   F   F
  0.2000000009889584  0.8000000011456946  0.6573502161828273   T   T   F
  0.1999999911208641  0.3999999914841042  0.6573502161828273   T   T   F
  0.6000000000000014  0.6000000000000014  0.2191167387276067   F   F   F
  0.3999999999999986  0.6000000000000014  0.2191167387276067   F   F   F
  0.3999999930131058 -0.0000000008484884  0.6573502161828273   T   T   F
  0.5999999890379599  0.4000000062834373  0.6573502161828273   T   T   F
  0.3999999999999986  0.2000000000000028  0.2191167387276067   F   F   F
  0.6000000000000014  0.3999999999999986  0.2191167387276067   F   F   F
  0.4000000057525231  0.1999999997683939  0.6573502161828273   T   T   F
  0.3999999999999986  0.3999999999999986  0.2191167387276067   F   F   F
  0.6000000006235106  0.1999999970861961  0.6573502161828273   T   T   F
  0.4000000270849640  0.4000000104798771  0.6573502161828273   T   T   F
  0.6000000000000014  0.2000000000000028  0.2191167387276067   F   F   F
  0.3999999992412199  0.7999999981465004  0.6573502161828273   T   T   F
  0.4000000104994898  0.6000000102230907  0.6573502161828273   T   T   F
  0.6000000072999865 -0.0000000005159308  0.6573502161828273   T   T   F
  0.3999999999999986  0.7999999999999972  0.2191167387276067   F   F   F
  0.6000000000000014  0.0000000000000000  0.2191167387276067   F   F   F
  0.3999999999999986  0.0000000000000000  0.2191167387276067   F   F   F
  0.7999999999999972  0.2000000000000028  0.2191167387276067   F   F   F
  0.2000000010622390  0.0000000020048467  0.6573502161828273   T   T   F
  0.2000000000000028  0.0000000000000000  0.2191167387276067   F   F   F
  0.0000000000000000  0.0000000000000000  0.2191167387276067   F   F   F
  0.7999999990468981  0.7999999974757781  0.6573502161828273   T   T   F
  0.0000000001295987  0.0000000001454917  0.6573502161828273   T   T   F
  0.7999999999999972  0.7999999999999972  0.2191167387276067   F   F   F
  0.0000000000000000  0.2000000000000028  0.2191167387276067   F   F   F
 -0.0000000048856084  0.1999999978377191  0.6573502161828273   T   T   F
  0.7999999969998038  0.6000000023131277  0.6573502161828273   T   T   F
  0.0000000000000000  0.3999999999999986  0.2191167387276067   F   F   F
 -0.0000000003266077  0.3999999913587043  0.6573502161828273   T   T   F
  0.0000000000000000  0.6000000000000014  0.2191167387276067   F   F   F
  0.7999999961466924  0.3999999980447265  0.6573502161828273   T   T   F
  0.0000000012680627  0.6000000084700974  0.6573502161828273   T   T   F
  0.7999999999999972  0.6000000000000014  0.2191167387276067   F   F   F
  0.7999999999999972  0.3999999999999986  0.2191167387276067   F   F   F
 -0.0000000000146787  0.7999999993032719  0.6573502161828273   T   T   F
  0.0000000000000000  0.7999999999999972  0.2191167387276067   F   F   F
  0.8000000009598102  0.1999999958253858  0.6573502161828273   T   T   F
  0.9333333333333300  0.0666666666666700  0.1698579369981488   F   F   F
  0.7333333328420534  0.2666666684560000  0.6080914144533693   T   T   F
  0.7333333322160656  0.2666666660263585  0.7066090179122924   T   T   F
  0.9333333327843560  0.6666666661849062  0.7066090179122924   T   T   F
  0.9333333299245560  0.6666666648942995  0.6080914144533693   T   T   F
  0.7333333333333343  0.2666666666666657  0.1698579369981488   F   F   F
  0.7333333333333343  0.2666666666666657  0.2683755404570718   F   F   F
  0.9333333333333371  0.4666666666666686  0.2683755404570718   F   F   F
  0.7333333335266770  0.0666666663154146  0.6080914144533693   T   T   F
  0.7333333326026267  0.0666666661067729  0.7066090179122924   T   T   F
  0.9333333333459317  0.0666666666640809  0.7066090179122924   T   T   F
  0.9333333333333371  0.8666666666666671  0.1698579369981488   F   F   F
  0.7333333333333343  0.0666666666666700  0.1698579369981488   F   F   F
  0.9333333316972433  0.0666666652613547  0.6080914144533693   T   T   F
  0.7333333333333343  0.0666666666666700  0.2683755404570718   F   F   F
  0.9333333333333300  0.2666666666666657  0.1698579369981488   F   F   F
  0.9333333334151448  0.2666666663822757  0.7066090179122924   T   T   F
  0.9333333333333371  0.8666666666666671  0.2683755404570718   F   F   F
  0.7333333333333343  0.4666666666666686  0.2683755404570718   F   F   F
  0.7333333333333343  0.4666666666666686  0.1698579369981488   F   F   F
  0.7333333333333343  0.8666666666666671  0.1698579369981488   F   F   F
  0.7333333326776124  0.8666666659521833  0.7066090179122924   T   T   F
  0.7333333333333343  0.8666666666666671  0.2683755404570718   F   F   F
  0.9333333333333371  0.4666666666666686  0.1698579369981488   F   F   F
  0.7333333323809381  0.8666666631160330  0.6080914144533693   T   T   F
  0.7333333254489210  0.6666666582720465  0.6080914144533693   T   T   F
  0.7333333324646593  0.6666666660052262  0.7066090179122924   T   T   F
  0.9333333329615070  0.4666666664704821  0.7066090179122924   T   T   F
  0.7333333333333343  0.6666666666666643  0.1698579369981488   F   F   F
  0.9333333302408365  0.4666666664291252  0.6080914144533693   T   T   F
  0.7333333333333343  0.6666666666666643  0.2683755404570718   F   F   F
  0.9333333319006524  0.2666666660163712  0.6080914144533693   T   T   F
  0.9333333333333300  0.2666666666666657  0.2683755404570718   F   F   F
  0.7333333263901313  0.4666666682008508  0.6080914144533693   T   T   F
  0.7333333326822259  0.4666666662750618  0.7066090179122924   T   T   F
  0.9333333333333371  0.6666666666666643  0.2683755404570718   F   F   F
  0.9333333333333300  0.0666666666666700  0.2683755404570718   F   F   F
  0.9333333333333371  0.6666666666666643  0.1698579369981488   F   F   F
  0.5333333345326434  0.8666666654044030  0.6080914144533693   T   T   F
  0.5333333335069993  0.0666666673094996  0.7066090179122924   T   T   F
  0.5333333333333314  0.8666666666666671  0.1698579369981488   F   F   F
  0.3333333333333357  0.2666666666666657  0.1698579369981488   F   F   F
  0.3333333333333357  0.2666666666666657  0.2683755404570718   F   F   F
  0.3333333333144526  0.0666666650580363  0.6080914144533693   T   T   F
  0.3333333339191691  0.0666666677483174  0.7066090179122924   T   T   F
  0.3333333333333357  0.0666666666666700  0.1698579369981488   F   F   F
  0.3333333333333357  0.0666666666666700  0.2683755404570718   F   F   F
  0.1333333316403618  0.8666666650303203  0.6080914144533693   T   T   F
  0.1333333327020702  0.8666666660262075  0.7066090179122924   T   T   F
  0.1333333333333329  0.8666666666666671  0.1698579369981488   F   F   F
  0.1333333333333329  0.8666666666666671  0.2683755404570718   F   F   F
  0.1333333314810278  0.6666666665576186  0.6080914144533693   T   T   F
  0.1333333323290347  0.6666666663313617  0.7066090179122924   T   T   F
  0.3333333339608734  0.2666666667935432  0.7066090179122924   T   T   F
  0.1333333333333329  0.6666666666666643  0.1698579369981488   F   F   F
  0.1333333317345264  0.4666666662470649  0.6080914144533693   T   T   F
  0.1333333327371964  0.4666666658030975  0.7066090179122924   T   T   F
  0.1333333333333329  0.4666666666666686  0.1698579369981488   F   F   F
  0.1333333333333329  0.4666666666666686  0.2683755404570718   F   F   F
  0.1333333327908748  0.2666666657246275  0.6080914144533693   T   T   F
  0.1333333343301156  0.2666666666273060  0.7066090179122924   T   T   F
  0.1333333333333329  0.2666666666666657  0.1698579369981488   F   F   F
  0.1333333333333329  0.2666666666666657  0.2683755404570718   F   F   F
  0.1333333318276708  0.0666666651958586  0.6080914144533693   T   T   F
  0.1333333334095337  0.0666666670493152  0.7066090179122924   T   T   F
  0.1333333333333329  0.0666666666666700  0.1698579369981488   F   F   F
  0.1333333333333329  0.0666666666666700  0.2683755404570718   F   F   F
  0.1333333333333329  0.6666666666666643  0.2683755404570718   F   F   F
  0.3333333371617372  0.2666666695325258  0.6080914144533693   T   T   F
  0.3333333333333357  0.4666666666666686  0.2683755404570718   F   F   F
  0.3333333333333357  0.4666666666666686  0.1698579369981488   F   F   F
  0.5333333333333314  0.8666666666666671  0.2683755404570718   F   F   F
  0.5333333347368435  0.6666666591378018  0.6080914144533693   T   T   F
  0.5333333316585123  0.6666666645303729  0.7066090179122924   T   T   F
  0.5333333333333314  0.6666666666666643  0.1698579369981488   F   F   F
  0.5333333333333314  0.6666666666666643  0.2683755404570718   F   F   F
  0.5333333653279242  0.4666666855017309  0.6080914144533693   T   T   F
  0.5333333325731392  0.4666666660988796  0.7066090179122924   T   T   F
  0.5333333333333314  0.4666666666666686  0.1698579369981488   F   F   F
  0.5333333333333314  0.4666666666666686  0.2683755404570718   F   F   F
  0.5333333332943494  0.2666666746052870  0.6080914144533693   T   T   F
  0.5333333309988204  0.2666666659903233  0.7066090179122924   T   T   F
  0.5333333333333314  0.2666666666666657  0.1698579369981488   F   F   F
  0.5333333333333314  0.2666666666666657  0.2683755404570718   F   F   F
  0.5333333341146115  0.0666666679184743  0.6080914144533693   T   T   F
  0.9333333328724627  0.8666666660841482  0.7066090179122924   T   T   F
  0.5333333333333314  0.0666666666666700  0.1698579369981488   F   F   F
  0.5333333333333314  0.0666666666666700  0.2683755404570718   F   F   F
  0.3333333325052273  0.8666666664704331  0.6080914144533693   T   T   F
  0.3333333332395578  0.8666666668297879  0.7066090179122924   T   T   F
  0.3333333333333357  0.8666666666666671  0.1698579369981488   F   F   F
  0.3333333333333357  0.8666666666666671  0.2683755404570718   F   F   F
  0.3333333342302604  0.6666666674650000  0.6080914144533693   T   T   F
  0.3333333338724072  0.6666666658814112  0.7066090179122924   T   T   F
  0.3333333333333357  0.6666666666666643  0.1698579369981488   F   F   F
  0.3333333333333357  0.6666666666666643  0.2683755404570718   F   F   F
  0.3333333360654162  0.4666666685008202  0.6080914144533693   T   T   F
  0.3333333341147183  0.4666666663026233  0.7066090179122924   T   T   F
  0.5333333336460975  0.8666666663455684  0.7066090179122924   T   T   F
  0.9333333301981268  0.8666666634773968  0.6080914144533693   T   T   F
 
  0.00000000E+00  0.00000000E+00  0.00000000E+00
  0.00000000E+00  0.00000000E+00  0.00000000E+00
  0.00000000E+00  0.00000000E+00  0.00000000E+00
  0.00000000E+00  0.00000000E+00  0.00000000E+00
  0.00000000E+00  0.00000000E+00  0.00000000E+00
  0.00000000E+00  0.00000000E+00  0.00000000E+00
  0.00000000E+00  0.00000000E+00  0.00000000E+00
  0.00000000E+00  0.00000000E+00  0.00000000E+00
  0.00000000E+00  0.00000000E+00  0.00000000E+00
  0.00000000E+00  0.00000000E+00  0.00000000E+00
  0.00000000E+00  0.00000000E+00  0.00000000E+00
  0.00000000E+00  0.00000000E+00  0.00000000E+00
  0.00000000E+00  0.00000000E+00  0.00000000E+00
  0.00000000E+00  0.00000000E+00  0.00000000E+00
  0.00000000E+00  0.00000000E+00  0.00000000E+00
  0.00000000E+00  0.00000000E+00  0.00000000E+00
  0.00000000E+00  0.00000000E+00  0.00000000E+00
  0.00000000E+00  0.00000000E+00  0.00000000E+00
  0.00000000E+00  0.00000000E+00  0.00000000E+00
  0.00000000E+00  0.00000000E+00  0.00000000E+00
  0.00000000E+00  0.00000000E+00  0.00000000E+00
  0.00000000E+00  0.00000000E+00  0.00000000E+00
  0.00000000E+00  0.00000000E+00  0.00000000E+00
  0.00000000E+00  0.00000000E+00  0.00000000E+00
  0.00000000E+00  0.00000000E+00  0.00000000E+00
  0.00000000E+00  0.00000000E+00  0.00000000E+00
  0.00000000E+00  0.00000000E+00  0.00000000E+00
  0.00000000E+00  0.00000000E+00  0.00000000E+00
  0.00000000E+00  0.00000000E+00  0.00000000E+00
  0.00000000E+00  0.00000000E+00  0.00000000E+00
  0.00000000E+00  0.00000000E+00  0.00000000E+00
  0.00000000E+00  0.00000000E+00  0.00000000E+00
  0.00000000E+00  0.00000000E+00  0.00000000E+00
  0.00000000E+00  0.00000000E+00  0.00000000E+00
  0.00000000E+00  0.00000000E+00  0.00000000E+00
  0.00000000E+00  0.00000000E+00  0.00000000E+00
  0.00000000E+00  0.00000000E+00  0.00000000E+00
  0.00000000E+00  0.00000000E+00  0.00000000E+00
  0.00000000E+00  0.00000000E+00  0.00000000E+00
  0.00000000E+00  0.00000000E+00  0.00000000E+00
  0.00000000E+00  0.00000000E+00  0.00000000E+00
  0.00000000E+00  0.00000000E+00  0.00000000E+00
  0.00000000E+00  0.00000000E+00  0.00000000E+00
  0.00000000E+00  0.00000000E+00  0.00000000E+00
  0.00000000E+00  0.00000000E+00  0.00000000E+00
  0.00000000E+00  0.00000000E+00  0.00000000E+00
  0.00000000E+00  0.00000000E+00  0.00000000E+00
  0.00000000E+00  0.00000000E+00  0.00000000E+00
  0.00000000E+00  0.00000000E+00  0.00000000E+00
  0.00000000E+00  0.00000000E+00  0.00000000E+00
  0.00000000E+00  0.00000000E+00  0.00000000E+00
  0.00000000E+00  0.00000000E+00  0.00000000E+00
  0.00000000E+00  0.00000000E+00  0.00000000E+00
  0.00000000E+00  0.00000000E+00  0.00000000E+00
  0.00000000E+00  0.00000000E+00  0.00000000E+00
  0.00000000E+00  0.00000000E+00  0.00000000E+00
  0.00000000E+00  0.00000000E+00  0.00000000E+00
  0.00000000E+00  0.00000000E+00  0.00000000E+00
  0.00000000E+00  0.00000000E+00  0.00000000E+00
  0.00000000E+00  0.00000000E+00  0.00000000E+00
  0.00000000E+00  0.00000000E+00  0.00000000E+00
  0.00000000E+00  0.00000000E+00  0.00000000E+00
  0.00000000E+00  0.00000000E+00  0.00000000E+00
  0.00000000E+00  0.00000000E+00  0.00000000E+00
  0.00000000E+00  0.00000000E+00  0.00000000E+00
  0.00000000E+00  0.00000000E+00  0.00000000E+00
  0.00000000E+00  0.00000000E+00  0.00000000E+00
  0.00000000E+00  0.00000000E+00  0.00000000E+00
  0.00000000E+00  0.00000000E+00  0.00000000E+00
  0.00000000E+00  0.00000000E+00  0.00000000E+00
  0.00000000E+00  0.00000000E+00  0.00000000E+00
  0.00000000E+00  0.00000000E+00  0.00000000E+00
  0.00000000E+00  0.00000000E+00  0.00000000E+00
  0.00000000E+00  0.00000000E+00  0.00000000E+00
  0.00000000E+00  0.00000000E+00  0.00000000E+00
  0.00000000E+00  0.00000000E+00  0.00000000E+00
  0.00000000E+00  0.00000000E+00  0.00000000E+00
  0.00000000E+00  0.00000000E+00  0.00000000E+00
  0.00000000E+00  0.00000000E+00  0.00000000E+00
  0.00000000E+00  0.00000000E+00  0.00000000E+00
  0.00000000E+00  0.00000000E+00  0.00000000E+00
  0.00000000E+00  0.00000000E+00  0.00000000E+00
  0.00000000E+00  0.00000000E+00  0.00000000E+00
  0.00000000E+00  0.00000000E+00  0.00000000E+00
  0.00000000E+00  0.00000000E+00  0.00000000E+00
  0.00000000E+00  0.00000000E+00  0.00000000E+00
  0.00000000E+00  0.00000000E+00  0.00000000E+00
  0.00000000E+00  0.00000000E+00  0.00000000E+00
  0.00000000E+00  0.00000000E+00  0.00000000E+00
  0.00000000E+00  0.00000000E+00  0.00000000E+00
  0.00000000E+00  0.00000000E+00  0.00000000E+00
  0.00000000E+00  0.00000000E+00  0.00000000E+00
  0.00000000E+00  0.00000000E+00  0.00000000E+00
  0.00000000E+00  0.00000000E+00  0.00000000E+00
  0.00000000E+00  0.00000000E+00  0.00000000E+00
  0.00000000E+00  0.00000000E+00  0.00000000E+00
  0.00000000E+00  0.00000000E+00  0.00000000E+00
  0.00000000E+00  0.00000000E+00  0.00000000E+00
  0.00000000E+00  0.00000000E+00  0.00000000E+00
  0.00000000E+00  0.00000000E+00  0.00000000E+00
  0.00000000E+00  0.00000000E+00  0.00000000E+00
  0.00000000E+00  0.00000000E+00  0.00000000E+00
  0.00000000E+00  0.00000000E+00  0.00000000E+00
  0.00000000E+00  0.00000000E+00  0.00000000E+00
  0.00000000E+00  0.00000000E+00  0.00000000E+00
  0.00000000E+00  0.00000000E+00  0.00000000E+00
  0.00000000E+00  0.00000000E+00  0.00000000E+00
  0.00000000E+00  0.00000000E+00  0.00000000E+00
  0.00000000E+00  0.00000000E+00  0.00000000E+00
  0.00000000E+00  0.00000000E+00  0.00000000E+00
  0.00000000E+00  0.00000000E+00  0.00000000E+00
  0.00000000E+00  0.00000000E+00  0.00000000E+00
  0.00000000E+00  0.00000000E+00  0.00000000E+00
  0.00000000E+00  0.00000000E+00  0.00000000E+00
  0.00000000E+00  0.00000000E+00  0.00000000E+00
  0.00000000E+00  0.00000000E+00  0.00000000E+00
  0.00000000E+00  0.00000000E+00  0.00000000E+00
  0.00000000E+00  0.00000000E+00  0.00000000E+00
  0.00000000E+00  0.00000000E+00  0.00000000E+00
  0.00000000E+00  0.00000000E+00  0.00000000E+00
  0.00000000E+00  0.00000000E+00  0.00000000E+00
  0.00000000E+00  0.00000000E+00  0.00000000E+00
  0.00000000E+00  0.00000000E+00  0.00000000E+00
  0.00000000E+00  0.00000000E+00  0.00000000E+00
  0.00000000E+00  0.00000000E+00  0.00000000E+00
  0.00000000E+00  0.00000000E+00  0.00000000E+00
  0.00000000E+00  0.00000000E+00  0.00000000E+00
  0.00000000E+00  0.00000000E+00  0.00000000E+00
  0.00000000E+00  0.00000000E+00  0.00000000E+00
  0.00000000E+00  0.00000000E+00  0.00000000E+00
  0.00000000E+00  0.00000000E+00  0.00000000E+00
  0.00000000E+00  0.00000000E+00  0.00000000E+00
  0.00000000E+00  0.00000000E+00  0.00000000E+00
  0.00000000E+00  0.00000000E+00  0.00000000E+00
  0.00000000E+00  0.00000000E+00  0.00000000E+00
  0.00000000E+00  0.00000000E+00  0.00000000E+00
  0.00000000E+00  0.00000000E+00  0.00000000E+00
  0.00000000E+00  0.00000000E+00  0.00000000E+00
  0.00000000E+00  0.00000000E+00  0.00000000E+00
  0.00000000E+00  0.00000000E+00  0.00000000E+00
  0.00000000E+00  0.00000000E+00  0.00000000E+00
  0.00000000E+00  0.00000000E+00  0.00000000E+00
  0.00000000E+00  0.00000000E+00  0.00000000E+00
  0.00000000E+00  0.00000000E+00  0.00000000E+00
  0.00000000E+00  0.00000000E+00  0.00000000E+00
  0.00000000E+00  0.00000000E+00  0.00000000E+00
  0.00000000E+00  0.00000000E+00  0.00000000E+00
  0.00000000E+00  0.00000000E+00  0.00000000E+00
  0.00000000E+00  0.00000000E+00  0.00000000E+00
  0.00000000E+00  0.00000000E+00  0.00000000E+00
  0.00000000E+00  0.00000000E+00  0.00000000E+00
  0.00000000E+00  0.00000000E+00  0.00000000E+00
  0.00000000E+00  0.00000000E+00  0.00000000E+00
  0.00000000E+00  0.00000000E+00  0.00000000E+00
  0.00000000E+00  0.00000000E+00  0.00000000E+00
  0.00000000E+00  0.00000000E+00  0.00000000E+00
  0.00000000E+00  0.00000000E+00  0.00000000E+00
  0.00000000E+00  0.00000000E+00  0.00000000E+00
  0.00000000E+00  0.00000000E+00  0.00000000E+00
  0.00000000E+00  0.00000000E+00  0.00000000E+00
  0.00000000E+00  0.00000000E+00  0.00000000E+00
  0.00000000E+00  0.00000000E+00  0.00000000E+00
  0.00000000E+00  0.00000000E+00  0.00000000E+00
  0.00000000E+00  0.00000000E+00  0.00000000E+00
  0.00000000E+00  0.00000000E+00  0.00000000E+00
  0.00000000E+00  0.00000000E+00  0.00000000E+00
  0.00000000E+00  0.00000000E+00  0.00000000E+00
  0.00000000E+00  0.00000000E+00  0.00000000E+00
  0.00000000E+00  0.00000000E+00  0.00000000E+00
  0.00000000E+00  0.00000000E+00  0.00000000E+00
  0.00000000E+00  0.00000000E+00  0.00000000E+00
