Cr  C  H  C  H 
 1.0000000000000000
    20.0000000000000000    0.0000000000000000    0.0000000000000000
     0.0000000000000000   20.0000000000000000    0.0000000000000000
     0.0000000000000000    0.0000000000000000   20.0000000000000000
  Cr   C   H   C   H
   1   5   4   5   6
Cartesian
 16.5571493246632997  3.2058035046474940 18.0470460784734712
 16.6793442338169626  4.3066091420722898 19.9529873682842371
 17.4972075881991920  4.9393793754428579 18.9763022645483765
 17.1198000318831092  2.9581187542086580 20.1072108763793551
 18.2325451024944094  2.7476946606283859 19.2164190254979559
 18.4623758987525264  3.9870779489174502 18.5107648289890356
 18.8182911435501836  1.8361889249148600 19.1253192994649410
 16.6821648761484518  2.2193701089424862 20.7748457808111660
 15.8214518359404988  4.7567357676233382 20.4483764539649293
 17.3778660277781398  5.9568576592976097 18.6109468956146387
 15.1093980693606316  3.7583699914848179 16.6137359698185989
 16.4704003401185197  1.8918296117354880 16.3439124402618710
 16.3056747194484402  3.2703399233033896 15.9668361538639907
 15.3907076750427656  1.5354256979180101 17.2039111569513707
 14.5554548648012414  2.6752140634454817 17.3763740108178162
 13.6707896936086719  2.7229000228107858 18.0081629770258260
 17.2865813518942701  1.2391254434931900 16.0437164536219719
 15.2677325692603958  0.5761685598423559 17.7032212117424450
 14.6852096383265103  4.7550789338870461 16.5176815496177447
 16.9444622183961222  3.8298694377009381 15.2880116238566277
 19.2403927965157351  4.1728424676830462 17.7742175803936426
