 C Cr  H Mo  S                          
   1.00000000000000     
    15.9000000000000004    0.0000000000000000    0.0000000000000000
    -7.9500000000000037   13.7698039201725724    0.0000000000000000
     0.0000000000000000    0.0000000000000000   32.3799999999999955
   C    Cr   H    Mo   S 
    10     1    10    50   100
Selective dynamics
Direct
  0.5261835352264710  0.3644415963752942  0.4778131411090027   T   T   T
  0.4298367849928243  0.3295714158898677  0.4924633574360182   T   T   T
  0.5767482583066815  0.4676974212135729  0.4788202524050306   T   T   T
  0.5119272759679718  0.4984824570455694  0.4944331201710769   T   T   T
  0.4200420854202302  0.4121872188845520  0.5030456953257915   T   T   T
  0.3325939650929007  0.3501320571655121  0.3952012160027157   T   T   T
  0.4229748257316555  0.5173682814809235  0.4047086321895637   T   T   T
  0.3325375102552580  0.4311083791462270  0.4150204019887217   T   T   T
  0.4770067843953561  0.4883231011273163  0.3786297675089531   T   T   T
  0.4211957694592591  0.3860710214046616  0.3728501922533449   T   T   T
  0.4486396657018470  0.4212725379760872  0.4398303299807882   T   T   T
  0.3563587473467492  0.4100250409503375  0.5165025090579420   T   T   T
  0.2740354390039359  0.4282363371929269  0.4334644291212358   T   T   T
  0.2753669438603275  0.2745240292230282  0.3970837499143249   T   T   T
  0.4450940883940820  0.5912103051243270  0.4140860497806950   T   T   T
  0.5490106040960743  0.5357748624096974  0.3659867001413604   T   T   T
  0.3735094033344607  0.2537520666791173  0.4950535154807776   T   T   T
  0.5547437900280976  0.3197363139624484  0.4658674446784188   T   T   T
  0.6510811100204542  0.5150060337824108  0.4685947300559291   T   T   T
  0.5297653380471018  0.5730050213888724  0.5001102513463246   T   T   T
  0.4443316765079137  0.3421858573095536  0.3557768153752418   T   T   T
  0.6008343393058739  0.5997713425066100  0.6481263697101112   T   T   T
  0.2000000000000028  0.7999999999999972  0.2191167387276067   F   F   F
  0.2009528143950683  0.5999784172899005  0.6482400939404244   T   T   T
  0.6000000000000014  0.7999999999999972  0.2191167387276067   F   F   F
  0.2000000000000028  0.6000000000000014  0.2191167387276067   F   F   F
  0.6009102759590583  0.7999039332654398  0.6481623516669284   T   T   T
  0.2000000000000028  0.3999999999999986  0.2191167387276067   F   F   F
  0.7999999999999972  0.0000000000000000  0.2191167387276067   F   F   F
  0.2009330803646510  0.1999754481493478  0.6482096440292350   T   T   T
  0.8008825979977622 -0.0000694654094320  0.6482182276906315   T   T   T
  0.2000000000000028  0.2000000000000028  0.2191167387276067   F   F   F
  0.2009112953938413  0.7999624723484644  0.6482354578783478   T   T   T
  0.2008914078067936  0.3999557531446494  0.6482425945405057   T   T   T
  0.6000000000000014  0.6000000000000014  0.2191167387276067   F   F   F
  0.3999999999999986  0.6000000000000014  0.2191167387276067   F   F   F
  0.4008942769561312 -0.0000333775192153  0.6481830066070828   T   T   T
  0.6008697999814020  0.3998995051374322  0.6481781597548941   T   T   T
  0.3999999999999986  0.2000000000000028  0.2191167387276067   F   F   F
  0.6000000000000014  0.3999999999999986  0.2191167387276067   F   F   F
  0.4008983910745959  0.1999944280012010  0.6481054629506119   T   T   T
  0.3999999999999986  0.3999999999999986  0.2191167387276067   F   F   F
  0.6008617228097558  0.1999553030330760  0.6481762896795225   T   T   T
  0.4009733974126369  0.3999389727515699  0.6480629388922827   T   T   T
  0.6000000000000014  0.2000000000000028  0.2191167387276067   F   F   F
  0.4009286337907817  0.7999636896932441  0.6482122895926843   T   T   T
  0.4009267474060507  0.5999858519879453  0.6481737096712815   T   T   T
  0.6009118304892852 -0.0000457561996594  0.6482018933464382   T   T   T
  0.3999999999999986  0.7999999999999972  0.2191167387276067   F   F   F
  0.6000000000000014  0.0000000000000000  0.2191167387276067   F   F   F
  0.3999999999999986  0.0000000000000000  0.2191167387276067   F   F   F
  0.7999999999999972  0.2000000000000028  0.2191167387276067   F   F   F
  0.2009143197826008 -0.0000397736776667  0.6481925434035521   T   T   T
  0.2000000000000028  0.0000000000000000  0.2191167387276067   F   F   F
  0.0000000000000000  0.0000000000000000  0.2191167387276067   F   F   F
  0.8008474617936867  0.7998829052968152  0.6481764173116654   T   T   T
  0.0008598126596249 -0.0000584633622976  0.6482170933404837   T   T   T
  0.7999999999999972  0.7999999999999972  0.2191167387276067   F   F   F
  0.0000000000000000  0.2000000000000028  0.2191167387276067   F   F   F
  0.0008691310783536  0.1999416212553565  0.6482425125775000   T   T   T
  0.8008691311435776  0.5998968280500095  0.6481646010205115   T   T   T
  0.0000000000000000  0.3999999999999986  0.2191167387276067   F   F   F
  0.0008896607364988  0.3999378326585801  0.6482490175363121   T   T   T
  0.0000000000000000  0.6000000000000014  0.2191167387276067   F   F   F
  0.8008818779094663  0.3999531244047853  0.6482064054049749   T   T   T
  0.0009019416674651  0.5999647896202760  0.6482352583970326   T   T   T
  0.7999999999999972  0.6000000000000014  0.2191167387276067   F   F   F
  0.7999999999999972  0.3999999999999986  0.2191167387276067   F   F   F
  0.0008869071424326  0.7999352730148214  0.6482180007305449   T   T   T
  0.0000000000000000  0.7999999999999972  0.2191167387276067   F   F   F
  0.8008835304527114  0.1999601823225837  0.6482311513760648   T   T   T
  0.9333333333333300  0.0666666666666700  0.1698579369981488   F   F   F
  0.7342399553786335  0.2666317068377321  0.5999547834012793   T   T   T
  0.7341563146006251  0.2666285207655318  0.6964607239238477   T   T   T
  0.9341482920029420  0.6665873754685316  0.6964633859179523   T   T   T
  0.9342604215926765  0.6666060834344577  0.5999568512069333   T   T   T
  0.7333333333333343  0.2666666666666657  0.1698579369981488   F   F   F
  0.7333333333333343  0.2666666666666657  0.2683755404570718   F   F   F
  0.9333333333333371  0.4666666666666686  0.2683755404570718   F   F   F
  0.7342599857279796  0.0666519049709682  0.5999687812826227   T   T   T
  0.7342015636409067  0.0665935704591578  0.6964793674147899   T   T   T
  0.9341926849019223  0.0665828893203037  0.6964879027685045   T   T   T
  0.9333333333333371  0.8666666666666671  0.1698579369981488   F   F   F
  0.7333333333333343  0.0666666666666700  0.1698579369981488   F   F   F
  0.9342179526122685  0.0666396548681473  0.5999788577327920   T   T   T
  0.7333333333333343  0.0666666666666700  0.2683755404570718   F   F   F
  0.9333333333333300  0.2666666666666657  0.1698579369981488   F   F   F
  0.9341998528577463  0.2666001832946237  0.6965060169503249   T   T   T
  0.9333333333333371  0.8666666666666671  0.2683755404570718   F   F   F
  0.7333333333333343  0.4666666666666686  0.2683755404570718   F   F   F
  0.7333333333333343  0.4666666666666686  0.1698579369981488   F   F   F
  0.7333333333333343  0.8666666666666671  0.1698579369981488   F   F   F
  0.7341788054557109  0.8665197079653750  0.6964408499744201   T   T   T
  0.7333333333333343  0.8666666666666671  0.2683755404570718   F   F   F
  0.9333333333333371  0.4666666666666686  0.1698579369981488   F   F   F
  0.7342529127097314  0.8666227631031880  0.5999349795681421   T   T   T
  0.7341943553228489  0.6665221367833464  0.5998726194040545   T   T   T
  0.7341303007187783  0.6665005877418928  0.6964028154325699   T   T   T
  0.9341896879708687  0.4666130224397249  0.6964866433590933   T   T   T
  0.7333333333333343  0.6666666666666643  0.1698579369981488   F   F   F
  0.9342594101522774  0.4666300937440337  0.5999809008255863   T   T   T
  0.7333333333333343  0.6666666666666643  0.2683755404570718   F   F   F
  0.9342200119675439  0.2666149787822207  0.5999936834275010   T   T   T
  0.9333333333333300  0.2666666666666657  0.2683755404570718   F   F   F
  0.7341833425801305  0.4665560373580621  0.5998969178950133   T   T   T
  0.7341843274291937  0.4666048901035153  0.6964422092953697   T   T   T
  0.9333333333333371  0.6666666666666643  0.2683755404570718   F   F   F
  0.9333333333333300  0.0666666666666700  0.2683755404570718   F   F   F
  0.9333333333333371  0.6666666666666643  0.1698579369981488   F   F   F
  0.5342388666908158  0.8666257467594912  0.5999423694693490   T   T   T
  0.5342175223098957  0.0666310250288287  0.6964425342758193   T   T   T
  0.5333333333333314  0.8666666666666671  0.1698579369981488   F   F   F
  0.3333333333333357  0.2666666666666657  0.1698579369981488   F   F   F
  0.3333333333333357  0.2666666666666657  0.2683755404570718   F   F   F
  0.3342014960493758  0.0665956347098114  0.5998950793213370   T   T   T
  0.3342943400809946  0.0667417538427356  0.6964140252114954   T   T   T
  0.3333333333333357  0.0666666666666700  0.1698579369981488   F   F   F
  0.3333333333333357  0.0666666666666700  0.2683755404570718   F   F   F
  0.1342337315499532  0.8665858536912657  0.5999706203799303   T   T   T
  0.1342410593881328  0.8666564706645185  0.6964748754335400   T   T   T
  0.1333333333333329  0.8666666666666671  0.1698579369981488   F   F   F
  0.1333333333333329  0.8666666666666671  0.2683755404570718   F   F   F
  0.1342538244062904  0.6666163818074096  0.5999938282504181   T   T   T
  0.1342528832897512  0.6666287558373784  0.6964961874370532   T   T   T
  0.3343556303597010  0.2667146313880626  0.6963869826406665   T   T   T
  0.1333333333333329  0.6666666666666643  0.1698579369981488   F   F   F
  0.1342176979544310  0.4666245020057234  0.5999925462608763   T   T   T
  0.1342549914077386  0.4666253133131969  0.6965042670396286   T   T   T
  0.1333333333333329  0.4666666666666686  0.1698579369981488   F   F   F
  0.1333333333333329  0.4666666666666686  0.2683755404570718   F   F   F
  0.1342304929851631  0.2666417016331180  0.5999726409543105   T   T   T
  0.1342816227030658  0.2666215370412227  0.6964845406654725   T   T   T
  0.1333333333333329  0.2666666666666657  0.1698579369981488   F   F   F
  0.1333333333333329  0.2666666666666657  0.2683755404570718   F   F   F
  0.1342137024433346  0.0666200552345450  0.5999566256584461   T   T   T
  0.1342543433534624  0.0666243339223472  0.6964607326466216   T   T   T
  0.1333333333333329  0.0666666666666700  0.1698579369981488   F   F   F
  0.1333333333333329  0.0666666666666700  0.2683755404570718   F   F   F
  0.1333333333333329  0.6666666666666643  0.2683755404570718   F   F   F
  0.3341195230750936  0.2665716721768881  0.5998358422498787   T   T   T
  0.3333333333333357  0.4666666666666686  0.2683755404570718   F   F   F
  0.3333333333333357  0.4666666666666686  0.1698579369981488   F   F   F
  0.5333333333333314  0.8666666666666671  0.2683755404570718   F   F   F
  0.5342121404158913  0.6665134864296006  0.5998557307438112   T   T   T
  0.5342573107801132  0.6665224097943683  0.6963945773805542   T   T   T
  0.5333333333333314  0.6666666666666643  0.1698579369981488   F   F   F
  0.5333333333333314  0.6666666666666643  0.2683755404570718   F   F   F
  0.5343743956112049  0.4664574255125358  0.5998737328320179   T   T   T
  0.5341607295638267  0.4665310644221334  0.6964119306196229   T   T   T
  0.5333333333333314  0.4666666666666686  0.1698579369981488   F   F   F
  0.5333333333333314  0.4666666666666686  0.2683755404570718   F   F   F
  0.5342701973838849  0.2666740351428896  0.5998380715779720   T   T   T
  0.5341210715891569  0.2665682288395015  0.6964111174124862   T   T   T
  0.5333333333333314  0.2666666666666657  0.1698579369981488   F   F   F
  0.5333333333333314  0.2666666666666657  0.2683755404570718   F   F   F
  0.5342360895397358  0.0666218373933802  0.5999366636946667   T   T   T
  0.9341616903144260  0.8665648820174602  0.6964589507534694   T   T   T
  0.5333333333333314  0.0666666666666700  0.1698579369981488   F   F   F
  0.5333333333333314  0.0666666666666700  0.2683755404570718   F   F   F
  0.3342056922627346  0.8665891440040788  0.5999641474954033   T   T   T
  0.3342869445290023  0.8666746271383488  0.6964728878675851   T   T   T
  0.3333333333333357  0.8666666666666671  0.1698579369981488   F   F   F
  0.3333333333333357  0.8666666666666671  0.2683755404570718   F   F   F
  0.3342173751892816  0.6666570327663633  0.5999524665532310   T   T   T
  0.3343317034793786  0.6666332011210296  0.6964730439519410   T   T   T
  0.3333333333333357  0.6666666666666643  0.1698579369981488   F   F   F
  0.3333333333333357  0.6666666666666643  0.2683755404570718   F   F   F
  0.3341196736642417  0.4666654189709573  0.5999594691403904   T   T   T
  0.3343816050068859  0.4666059253825507  0.6964145141687275   T   T   T
  0.5342919506669177  0.8665934476247851  0.6964486084666777   T   T   T
  0.9342416634906876  0.8666104616903170  0.5999567160196951   T   T   T
 
  0.00000000E+00  0.00000000E+00  0.00000000E+00
  0.00000000E+00  0.00000000E+00  0.00000000E+00
  0.00000000E+00  0.00000000E+00  0.00000000E+00
  0.00000000E+00  0.00000000E+00  0.00000000E+00
  0.00000000E+00  0.00000000E+00  0.00000000E+00
  0.00000000E+00  0.00000000E+00  0.00000000E+00
  0.00000000E+00  0.00000000E+00  0.00000000E+00
  0.00000000E+00  0.00000000E+00  0.00000000E+00
  0.00000000E+00  0.00000000E+00  0.00000000E+00
  0.00000000E+00  0.00000000E+00  0.00000000E+00
  0.00000000E+00  0.00000000E+00  0.00000000E+00
  0.00000000E+00  0.00000000E+00  0.00000000E+00
  0.00000000E+00  0.00000000E+00  0.00000000E+00
  0.00000000E+00  0.00000000E+00  0.00000000E+00
  0.00000000E+00  0.00000000E+00  0.00000000E+00
  0.00000000E+00  0.00000000E+00  0.00000000E+00
  0.00000000E+00  0.00000000E+00  0.00000000E+00
  0.00000000E+00  0.00000000E+00  0.00000000E+00
  0.00000000E+00  0.00000000E+00  0.00000000E+00
  0.00000000E+00  0.00000000E+00  0.00000000E+00
  0.00000000E+00  0.00000000E+00  0.00000000E+00
  0.00000000E+00  0.00000000E+00  0.00000000E+00
  0.00000000E+00  0.00000000E+00  0.00000000E+00
  0.00000000E+00  0.00000000E+00  0.00000000E+00
  0.00000000E+00  0.00000000E+00  0.00000000E+00
  0.00000000E+00  0.00000000E+00  0.00000000E+00
  0.00000000E+00  0.00000000E+00  0.00000000E+00
  0.00000000E+00  0.00000000E+00  0.00000000E+00
  0.00000000E+00  0.00000000E+00  0.00000000E+00
  0.00000000E+00  0.00000000E+00  0.00000000E+00
  0.00000000E+00  0.00000000E+00  0.00000000E+00
  0.00000000E+00  0.00000000E+00  0.00000000E+00
  0.00000000E+00  0.00000000E+00  0.00000000E+00
  0.00000000E+00  0.00000000E+00  0.00000000E+00
  0.00000000E+00  0.00000000E+00  0.00000000E+00
  0.00000000E+00  0.00000000E+00  0.00000000E+00
  0.00000000E+00  0.00000000E+00  0.00000000E+00
  0.00000000E+00  0.00000000E+00  0.00000000E+00
  0.00000000E+00  0.00000000E+00  0.00000000E+00
  0.00000000E+00  0.00000000E+00  0.00000000E+00
  0.00000000E+00  0.00000000E+00  0.00000000E+00
  0.00000000E+00  0.00000000E+00  0.00000000E+00
  0.00000000E+00  0.00000000E+00  0.00000000E+00
  0.00000000E+00  0.00000000E+00  0.00000000E+00
  0.00000000E+00  0.00000000E+00  0.00000000E+00
  0.00000000E+00  0.00000000E+00  0.00000000E+00
  0.00000000E+00  0.00000000E+00  0.00000000E+00
  0.00000000E+00  0.00000000E+00  0.00000000E+00
  0.00000000E+00  0.00000000E+00  0.00000000E+00
  0.00000000E+00  0.00000000E+00  0.00000000E+00
  0.00000000E+00  0.00000000E+00  0.00000000E+00
  0.00000000E+00  0.00000000E+00  0.00000000E+00
  0.00000000E+00  0.00000000E+00  0.00000000E+00
  0.00000000E+00  0.00000000E+00  0.00000000E+00
  0.00000000E+00  0.00000000E+00  0.00000000E+00
  0.00000000E+00  0.00000000E+00  0.00000000E+00
  0.00000000E+00  0.00000000E+00  0.00000000E+00
  0.00000000E+00  0.00000000E+00  0.00000000E+00
  0.00000000E+00  0.00000000E+00  0.00000000E+00
  0.00000000E+00  0.00000000E+00  0.00000000E+00
  0.00000000E+00  0.00000000E+00  0.00000000E+00
  0.00000000E+00  0.00000000E+00  0.00000000E+00
  0.00000000E+00  0.00000000E+00  0.00000000E+00
  0.00000000E+00  0.00000000E+00  0.00000000E+00
  0.00000000E+00  0.00000000E+00  0.00000000E+00
  0.00000000E+00  0.00000000E+00  0.00000000E+00
  0.00000000E+00  0.00000000E+00  0.00000000E+00
  0.00000000E+00  0.00000000E+00  0.00000000E+00
  0.00000000E+00  0.00000000E+00  0.00000000E+00
  0.00000000E+00  0.00000000E+00  0.00000000E+00
  0.00000000E+00  0.00000000E+00  0.00000000E+00
  0.00000000E+00  0.00000000E+00  0.00000000E+00
  0.00000000E+00  0.00000000E+00  0.00000000E+00
  0.00000000E+00  0.00000000E+00  0.00000000E+00
  0.00000000E+00  0.00000000E+00  0.00000000E+00
  0.00000000E+00  0.00000000E+00  0.00000000E+00
  0.00000000E+00  0.00000000E+00  0.00000000E+00
  0.00000000E+00  0.00000000E+00  0.00000000E+00
  0.00000000E+00  0.00000000E+00  0.00000000E+00
  0.00000000E+00  0.00000000E+00  0.00000000E+00
  0.00000000E+00  0.00000000E+00  0.00000000E+00
  0.00000000E+00  0.00000000E+00  0.00000000E+00
  0.00000000E+00  0.00000000E+00  0.00000000E+00
  0.00000000E+00  0.00000000E+00  0.00000000E+00
  0.00000000E+00  0.00000000E+00  0.00000000E+00
  0.00000000E+00  0.00000000E+00  0.00000000E+00
  0.00000000E+00  0.00000000E+00  0.00000000E+00
  0.00000000E+00  0.00000000E+00  0.00000000E+00
  0.00000000E+00  0.00000000E+00  0.00000000E+00
  0.00000000E+00  0.00000000E+00  0.00000000E+00
  0.00000000E+00  0.00000000E+00  0.00000000E+00
  0.00000000E+00  0.00000000E+00  0.00000000E+00
  0.00000000E+00  0.00000000E+00  0.00000000E+00
  0.00000000E+00  0.00000000E+00  0.00000000E+00
  0.00000000E+00  0.00000000E+00  0.00000000E+00
  0.00000000E+00  0.00000000E+00  0.00000000E+00
  0.00000000E+00  0.00000000E+00  0.00000000E+00
  0.00000000E+00  0.00000000E+00  0.00000000E+00
  0.00000000E+00  0.00000000E+00  0.00000000E+00
  0.00000000E+00  0.00000000E+00  0.00000000E+00
  0.00000000E+00  0.00000000E+00  0.00000000E+00
  0.00000000E+00  0.00000000E+00  0.00000000E+00
  0.00000000E+00  0.00000000E+00  0.00000000E+00
  0.00000000E+00  0.00000000E+00  0.00000000E+00
  0.00000000E+00  0.00000000E+00  0.00000000E+00
  0.00000000E+00  0.00000000E+00  0.00000000E+00
  0.00000000E+00  0.00000000E+00  0.00000000E+00
  0.00000000E+00  0.00000000E+00  0.00000000E+00
  0.00000000E+00  0.00000000E+00  0.00000000E+00
  0.00000000E+00  0.00000000E+00  0.00000000E+00
  0.00000000E+00  0.00000000E+00  0.00000000E+00
  0.00000000E+00  0.00000000E+00  0.00000000E+00
  0.00000000E+00  0.00000000E+00  0.00000000E+00
  0.00000000E+00  0.00000000E+00  0.00000000E+00
  0.00000000E+00  0.00000000E+00  0.00000000E+00
  0.00000000E+00  0.00000000E+00  0.00000000E+00
  0.00000000E+00  0.00000000E+00  0.00000000E+00
  0.00000000E+00  0.00000000E+00  0.00000000E+00
  0.00000000E+00  0.00000000E+00  0.00000000E+00
  0.00000000E+00  0.00000000E+00  0.00000000E+00
  0.00000000E+00  0.00000000E+00  0.00000000E+00
  0.00000000E+00  0.00000000E+00  0.00000000E+00
  0.00000000E+00  0.00000000E+00  0.00000000E+00
  0.00000000E+00  0.00000000E+00  0.00000000E+00
  0.00000000E+00  0.00000000E+00  0.00000000E+00
  0.00000000E+00  0.00000000E+00  0.00000000E+00
  0.00000000E+00  0.00000000E+00  0.00000000E+00
  0.00000000E+00  0.00000000E+00  0.00000000E+00
  0.00000000E+00  0.00000000E+00  0.00000000E+00
  0.00000000E+00  0.00000000E+00  0.00000000E+00
  0.00000000E+00  0.00000000E+00  0.00000000E+00
  0.00000000E+00  0.00000000E+00  0.00000000E+00
  0.00000000E+00  0.00000000E+00  0.00000000E+00
  0.00000000E+00  0.00000000E+00  0.00000000E+00
  0.00000000E+00  0.00000000E+00  0.00000000E+00
  0.00000000E+00  0.00000000E+00  0.00000000E+00
  0.00000000E+00  0.00000000E+00  0.00000000E+00
  0.00000000E+00  0.00000000E+00  0.00000000E+00
  0.00000000E+00  0.00000000E+00  0.00000000E+00
  0.00000000E+00  0.00000000E+00  0.00000000E+00
  0.00000000E+00  0.00000000E+00  0.00000000E+00
  0.00000000E+00  0.00000000E+00  0.00000000E+00
  0.00000000E+00  0.00000000E+00  0.00000000E+00
  0.00000000E+00  0.00000000E+00  0.00000000E+00
  0.00000000E+00  0.00000000E+00  0.00000000E+00
  0.00000000E+00  0.00000000E+00  0.00000000E+00
  0.00000000E+00  0.00000000E+00  0.00000000E+00
  0.00000000E+00  0.00000000E+00  0.00000000E+00
  0.00000000E+00  0.00000000E+00  0.00000000E+00
  0.00000000E+00  0.00000000E+00  0.00000000E+00
  0.00000000E+00  0.00000000E+00  0.00000000E+00
  0.00000000E+00  0.00000000E+00  0.00000000E+00
  0.00000000E+00  0.00000000E+00  0.00000000E+00
  0.00000000E+00  0.00000000E+00  0.00000000E+00
  0.00000000E+00  0.00000000E+00  0.00000000E+00
  0.00000000E+00  0.00000000E+00  0.00000000E+00
  0.00000000E+00  0.00000000E+00  0.00000000E+00
  0.00000000E+00  0.00000000E+00  0.00000000E+00
  0.00000000E+00  0.00000000E+00  0.00000000E+00
  0.00000000E+00  0.00000000E+00  0.00000000E+00
  0.00000000E+00  0.00000000E+00  0.00000000E+00
  0.00000000E+00  0.00000000E+00  0.00000000E+00
  0.00000000E+00  0.00000000E+00  0.00000000E+00
  0.00000000E+00  0.00000000E+00  0.00000000E+00
  0.00000000E+00  0.00000000E+00  0.00000000E+00
  0.00000000E+00  0.00000000E+00  0.00000000E+00
  0.00000000E+00  0.00000000E+00  0.00000000E+00
  0.00000000E+00  0.00000000E+00  0.00000000E+00
  0.00000000E+00  0.00000000E+00  0.00000000E+00
  0.00000000E+00  0.00000000E+00  0.00000000E+00
  0.00000000E+00  0.00000000E+00  0.00000000E+00
