 C Co  H Mo  S                          
   1.00000000000000     
     9.5709464550000014    0.0000000000000000    0.0000000000000000
    -6.3806280268000020   11.0515787236000005    0.0000000000000000
     0.0000000000000000    0.0000000000000000   34.8802625070458063
   C    Co   H    Mo   S 
    10     1    10    24    48
Direct
  0.1367257137157620  0.0204794674574419  0.9269264061147825
  0.1504096815956144  0.0813488861466602  0.9624959062729073
  0.2097520152268602  0.1100466478565336  0.8975522852474798
  0.2677945989903229  0.2263176893028067  0.9148309470537338
  0.2319359939317977  0.2087543436205958  0.9550200088759349
  0.7785461866851525  0.0130466165055593  0.9300765962353665
  0.9085390262993007  0.2204409682404258  0.9209454029263026
  0.8340608864855392  0.1266878016707206  0.9490943700510580
  0.8985851775954682  0.1647730184772349  0.8846242502224222
  0.8177362329900384  0.0366181791052127  0.8902080440159493
  0.0233349034750946  0.1209153627132424  0.9233585096123230
  0.2571268126491288  0.2791869545757429  0.9759443401531123
  0.8256673767743230  0.1395926968587360  0.9796472986526188
 -0.0519209327162476  0.2117577592241674  0.8576947539836469
  0.9667894766263251  0.3172137938925100  0.9262712170516949
  0.7206269370655816  0.9245973502857132  0.9437217868739229
  0.1030383590004119  0.0383048825972948 -0.0099348943118156
  0.0769087593734494  0.9230843729797290  0.9226943967834531
  0.2148404139346667  0.0928880323748098  0.8671874640389897
  0.3249628186777970  0.3123944328054401  0.8997077752480026
  0.7952192347639023  0.9697017817444675  0.8681547668036109
  0.5552150345440380  0.0833982966926230  0.2477236218774827
  0.5552184386387624  0.3334004487733825  0.2477244985126354
  0.4164712287260069  0.4011247612946627  0.7470902224491742
  0.5552171216710552  0.5834017282452545  0.2477240372786413
  0.4163344940424592  0.6510378835872095  0.7470889898990470
  0.5552153016559009  0.8333986926671163  0.2477234138376940
  0.4164736754080897  0.9011748890325194  0.7469751867146565
  0.8885437530918093  0.3334143915896160  0.2477198582319085
  0.7496500087018734  0.1511782675341044  0.7467730725239350
  0.7497941475063340  0.4011834969806512  0.7470964104181099
  0.8885446874994739  0.5834138140564492  0.2477208752913041
  0.7497041151814658  0.6510198720471768  0.7470658539962398
  0.8885429759005394  0.8334121406069666  0.2477201955245645
  0.7495055975415740  0.9006580293463342  0.7466571200567323
  0.0829517823652300  0.9008534950112076  0.7468221123182835
  0.8885444884248047  0.0834133335753140  0.2477195978462947
  0.2218931559441880  0.8333885286616260  0.2477208180232328
  0.4168923009424178  0.1513099486183753  0.7468879984483808
  0.2218906900498697  0.5833893177648597  0.2477217500714478
  0.0830676563307380  0.4011194878938119  0.7470333658489130
  0.2218923792180993  0.3333898571719889  0.2477214722984604
  0.2218934351646311  0.0833881576248360  0.2477209780581810
  0.0832987160289369  0.1511993964364905  0.7466418347304870
  0.0830743397560492  0.6510847412184040  0.7470993277953942
  0.7768256120939249  0.1659677705917967  0.2922830974037613
  0.8615118499668907  0.0680503644884046  0.7907830881488448
  0.7767976295595482  0.1659528315088359  0.2031828842517535
  0.8613560469754854  0.0684864173602541  0.7021274271152279
  0.1953399042713400  0.0684997084445315  0.7022473575492667
  0.1101527025017345  0.1659294903570027  0.2031810707342857
  0.7768270700771386  0.4159682255783081  0.2922840685360686
  0.8614241314208778  0.3182944460366116  0.7914862380192598
  0.1101513795078730  0.6659290039511709  0.2031817630025535
  0.5274260969459222  0.8181059355695854  0.7023652380913666
  0.8617049556332615  0.3189697225739885  0.7024351635118933
  0.1947342639816834  0.0684702021840387  0.7910445580073214
  0.1101447825695827  0.1659335652302227  0.2922834067246954
  0.7768267487246566  0.6659696390799880  0.2922842511513412
  0.8615773176693825  0.5686498335105570  0.7916259470486592
  0.7767967222076414  0.6659522578355659  0.2031835086885334
  0.8615670435229270  0.5685219002397996  0.7025537214139886
  0.7768269454143623  0.9159685043788892  0.2922835154947498
  0.8616067338680415  0.8188328231292544  0.7914177132416209
  0.7767974285747983  0.4159544428501283  0.2031834169391649
  0.4434804415542065  0.9159398013149073  0.2031865224328691
  0.4434805579288573  0.9159461497899875  0.2922882558171622
  0.1948423247193976  0.5685753836999282  0.7025474068730455
  0.1948360580361914  0.5684941495152949  0.7916088448585176
  0.1101471889162683  0.9159355542537143  0.2922838988654169
  0.1949520868589341  0.8188360609603492  0.7914902362317033
  0.1101531960069262  0.9159288562222468  0.2031813636002854
  0.1948762192797648  0.8182327919136315  0.7024251519837951
  0.1101461644766122  0.6659344373379801  0.2922843077027724
  0.7767963048616282  0.9159504597933656  0.2031832082199231
  0.4434806395069803  0.1659455764232133  0.2922879379679242
  0.5285589136701253  0.0687180051003911  0.7914566640249688
  0.4434831904955596  0.1659442456688869  0.2031866560673105
  0.5280877126213687  0.0684829388944543  0.7023244319041279
  0.4434789145249360  0.4159459721086487  0.2922886837281137
  0.5280995630126664  0.3184350790154559  0.7915852931859472
  0.4434838607437444  0.4159451884838591  0.2031868208823638
  0.5285127291611235  0.3189280054487386  0.7024940111456082
  0.1953306274662225  0.3191122479408179  0.7023905969079907
  0.1101542159071326  0.4159313176461639  0.2031812762898543
  0.4434789209719942  0.6659463412647416  0.2922890642502347
  0.5282117038221312  0.5685759915518415  0.7916159828028405
  0.4434815078756683  0.6659427032090308  0.2031865099225030
  0.5281442240863364  0.5685142053167289  0.7025563323438148
  0.1944789172152703  0.3180727579438139  0.7914859829722524
  0.1101454888999777  0.4159336593546501  0.2922838299688795
  0.5286772491147876  0.8188741977846934  0.7914527940799808
  0.8613904055239477  0.8179533127588245  0.7022847481804888
 
  0.00000000E+00  0.00000000E+00  0.00000000E+00
  0.00000000E+00  0.00000000E+00  0.00000000E+00
  0.00000000E+00  0.00000000E+00  0.00000000E+00
  0.00000000E+00  0.00000000E+00  0.00000000E+00
  0.00000000E+00  0.00000000E+00  0.00000000E+00
  0.00000000E+00  0.00000000E+00  0.00000000E+00
  0.00000000E+00  0.00000000E+00  0.00000000E+00
  0.00000000E+00  0.00000000E+00  0.00000000E+00
  0.00000000E+00  0.00000000E+00  0.00000000E+00
  0.00000000E+00  0.00000000E+00  0.00000000E+00
  0.00000000E+00  0.00000000E+00  0.00000000E+00
  0.00000000E+00  0.00000000E+00  0.00000000E+00
  0.00000000E+00  0.00000000E+00  0.00000000E+00
  0.00000000E+00  0.00000000E+00  0.00000000E+00
  0.00000000E+00  0.00000000E+00  0.00000000E+00
  0.00000000E+00  0.00000000E+00  0.00000000E+00
  0.00000000E+00  0.00000000E+00  0.00000000E+00
  0.00000000E+00  0.00000000E+00  0.00000000E+00
  0.00000000E+00  0.00000000E+00  0.00000000E+00
  0.00000000E+00  0.00000000E+00  0.00000000E+00
  0.00000000E+00  0.00000000E+00  0.00000000E+00
  0.00000000E+00  0.00000000E+00  0.00000000E+00
  0.00000000E+00  0.00000000E+00  0.00000000E+00
  0.00000000E+00  0.00000000E+00  0.00000000E+00
  0.00000000E+00  0.00000000E+00  0.00000000E+00
  0.00000000E+00  0.00000000E+00  0.00000000E+00
  0.00000000E+00  0.00000000E+00  0.00000000E+00
  0.00000000E+00  0.00000000E+00  0.00000000E+00
  0.00000000E+00  0.00000000E+00  0.00000000E+00
  0.00000000E+00  0.00000000E+00  0.00000000E+00
  0.00000000E+00  0.00000000E+00  0.00000000E+00
  0.00000000E+00  0.00000000E+00  0.00000000E+00
  0.00000000E+00  0.00000000E+00  0.00000000E+00
  0.00000000E+00  0.00000000E+00  0.00000000E+00
  0.00000000E+00  0.00000000E+00  0.00000000E+00
  0.00000000E+00  0.00000000E+00  0.00000000E+00
  0.00000000E+00  0.00000000E+00  0.00000000E+00
  0.00000000E+00  0.00000000E+00  0.00000000E+00
  0.00000000E+00  0.00000000E+00  0.00000000E+00
  0.00000000E+00  0.00000000E+00  0.00000000E+00
  0.00000000E+00  0.00000000E+00  0.00000000E+00
  0.00000000E+00  0.00000000E+00  0.00000000E+00
  0.00000000E+00  0.00000000E+00  0.00000000E+00
  0.00000000E+00  0.00000000E+00  0.00000000E+00
  0.00000000E+00  0.00000000E+00  0.00000000E+00
  0.00000000E+00  0.00000000E+00  0.00000000E+00
  0.00000000E+00  0.00000000E+00  0.00000000E+00
  0.00000000E+00  0.00000000E+00  0.00000000E+00
  0.00000000E+00  0.00000000E+00  0.00000000E+00
  0.00000000E+00  0.00000000E+00  0.00000000E+00
  0.00000000E+00  0.00000000E+00  0.00000000E+00
  0.00000000E+00  0.00000000E+00  0.00000000E+00
  0.00000000E+00  0.00000000E+00  0.00000000E+00
  0.00000000E+00  0.00000000E+00  0.00000000E+00
  0.00000000E+00  0.00000000E+00  0.00000000E+00
  0.00000000E+00  0.00000000E+00  0.00000000E+00
  0.00000000E+00  0.00000000E+00  0.00000000E+00
  0.00000000E+00  0.00000000E+00  0.00000000E+00
  0.00000000E+00  0.00000000E+00  0.00000000E+00
  0.00000000E+00  0.00000000E+00  0.00000000E+00
  0.00000000E+00  0.00000000E+00  0.00000000E+00
  0.00000000E+00  0.00000000E+00  0.00000000E+00
  0.00000000E+00  0.00000000E+00  0.00000000E+00
  0.00000000E+00  0.00000000E+00  0.00000000E+00
  0.00000000E+00  0.00000000E+00  0.00000000E+00
  0.00000000E+00  0.00000000E+00  0.00000000E+00
  0.00000000E+00  0.00000000E+00  0.00000000E+00
  0.00000000E+00  0.00000000E+00  0.00000000E+00
  0.00000000E+00  0.00000000E+00  0.00000000E+00
  0.00000000E+00  0.00000000E+00  0.00000000E+00
  0.00000000E+00  0.00000000E+00  0.00000000E+00
  0.00000000E+00  0.00000000E+00  0.00000000E+00
  0.00000000E+00  0.00000000E+00  0.00000000E+00
  0.00000000E+00  0.00000000E+00  0.00000000E+00
  0.00000000E+00  0.00000000E+00  0.00000000E+00
  0.00000000E+00  0.00000000E+00  0.00000000E+00
  0.00000000E+00  0.00000000E+00  0.00000000E+00
  0.00000000E+00  0.00000000E+00  0.00000000E+00
  0.00000000E+00  0.00000000E+00  0.00000000E+00
  0.00000000E+00  0.00000000E+00  0.00000000E+00
  0.00000000E+00  0.00000000E+00  0.00000000E+00
  0.00000000E+00  0.00000000E+00  0.00000000E+00
  0.00000000E+00  0.00000000E+00  0.00000000E+00
  0.00000000E+00  0.00000000E+00  0.00000000E+00
  0.00000000E+00  0.00000000E+00  0.00000000E+00
  0.00000000E+00  0.00000000E+00  0.00000000E+00
  0.00000000E+00  0.00000000E+00  0.00000000E+00
  0.00000000E+00  0.00000000E+00  0.00000000E+00
  0.00000000E+00  0.00000000E+00  0.00000000E+00
  0.00000000E+00  0.00000000E+00  0.00000000E+00
  0.00000000E+00  0.00000000E+00  0.00000000E+00
  0.00000000E+00  0.00000000E+00  0.00000000E+00
  0.00000000E+00  0.00000000E+00  0.00000000E+00
