 C Cr  H Mo  S 
 1.0000000000000000
    15.9000000000000004    0.0000000000000000    0.0000000000000000
    -7.9500000000000037   13.7698039201725724    0.0000000000000000
     0.0000000000000000    0.0000000000000000   32.3799999999999955
  10   1  10  50 100
Selective dynamics
Cartesian
  2.8078867801816001  5.6040416356299039 12.2380304976193202   T   T   F
  2.2157156393666289  4.7418277465805092 13.2019459379235702   T   T   F
  4.1933913650847625  5.2796982931390337 12.1313020194420957   T   T   F
  4.4688778306715831  4.1953523753065589 13.0392068331114945   T   T   F
  3.2312609910754189  3.8651077763333936 13.7071020632535898   T   T   F
  3.1105815727397323  7.2385675747121914 15.5775810429334776   T   T   F
  5.0767444140253923  6.0444556215903429 15.9202255121787495   T   T   F
  3.6776169611787930  6.0930797130089482 16.2514200220856821   T   T   F
  5.3675271858832474  7.1446632707766486 15.0615368015431716   T   T   F
  4.1668006979512997  7.8779364083013093 14.8445699420109847   T   T   F
  3.8313501767066027  5.8334828768089961 14.1768951757839705   T   T   F
  3.0886661070792369  3.0792165348045049 14.4449111541416322   T   T   F
  3.1528164687566562  5.4134667583034481 16.9182304627533782   T   T   F
  2.0786746223274610  7.5764428276881137 15.6375756397333596   T   T   F
  5.7866246061613245  5.2893371960836717 16.2490994726746187   T   T   F
  6.3285765880004430  7.3458884206558706 14.5919623663861753   T   T   F
  1.1803669346392121  4.7760932860507985 13.5334092755531188   T   T   F
  2.3025510337378146  6.4167089105055481 11.7201392201410730   T   T   F
  4.9134776555436739  5.7743409798406375 11.4833708480828882   T   T   F
  5.4236233590847789  3.6905282438301596 13.1651189579786596   T   T   F
  4.0643894485474377  8.7508092431948299 14.2029558338708668   T   T   F
  4.7700000000000005  8.2618823521035445 21.2850000000000001   T   T   F
 -3.1800000000000002 11.0158431361380593  7.0949999999999998   F   F   F
 -1.5900000000000003  8.2618823521035445 21.2850000000000001   T   T   F
  3.1800000000000006 11.0158431361380593  7.0949999999999998   F   F   F
 -1.5900000000000003  8.2618823521035445  7.0949999999999998   F   F   F
  3.1800000000000006 11.0158431361380593 21.2850000000000001   T   T   F
  0.0000000000000000  5.5079215680690297  7.0949999999999998   F   F   F
 12.7200000000000006  0.0000000000000000  7.0949999999999998   F   F   F
  1.5900000000000001  2.7539607840345148 21.2850000000000001   T   T   F
 12.7200000000000006  0.0000000000000000 21.2850000000000001   T   T   F
  1.5900000000000001  2.7539607840345148  7.0949999999999998   F   F   F
 -3.1800000000000002 11.0158431361380593 21.2850000000000001   T   T   F
  0.0000000000000000  5.5079215680690297 21.2850000000000001   T   T   F
  4.7700000000000005  8.2618823521035445  7.0949999999999998   F   F   F
  1.5899999999999999  8.2618823521035445  7.0949999999999998   F   F   F
  6.3600000000000003  0.0000000000000000 21.2850000000000001   T   T   F
  6.3600000000000012  5.5079215680690297 21.2850000000000001   T   T   F
  4.7700000000000005  2.7539607840345148  7.0949999999999998   F   F   F
  6.3600000000000012  5.5079215680690297  7.0949999999999998   F   F   F
  4.7700000000000005  2.7539607840345148 21.2850000000000001   T   T   F
  3.1800000000000002  5.5079215680690297  7.0949999999999998   F   F   F
  7.9500000000000011  2.7539607840345148 21.2850000000000001   T   T   F
  3.1800000000000002  5.5079215680690297 21.2850000000000001   T   T   F
  7.9500000000000011  2.7539607840345148  7.0949999999999998   F   F   F
  0.0000000000000000 11.0158431361380593 21.2850000000000001   T   T   F
  1.5899999999999999  8.2618823521035445 21.2850000000000001   T   T   F
  9.5400000000000009  0.0000000000000000 21.2850000000000001   T   T   F
  0.0000000000000000 11.0158431361380593  7.0949999999999998   F   F   F
  9.5400000000000009  0.0000000000000000  7.0949999999999998   F   F   F
  6.3600000000000003  0.0000000000000000  7.0949999999999998   F   F   F
 11.1300000000000008  2.7539607840345148  7.0949999999999998   F   F   F
  3.1800000000000002  0.0000000000000000 21.2850000000000001   T   T   F
  3.1800000000000002  0.0000000000000000  7.0949999999999998   F   F   F
  0.0000000000000000  0.0000000000000000  7.0949999999999998   F   F   F
  6.3600000000000003 11.0158431361380593 21.2850000000000001   T   T   F
  0.0000000000000000  0.0000000000000000 21.2850000000000001   T   T   F
  6.3600000000000003 11.0158431361380593  7.0949999999999998   F   F   F
 -1.5900000000000001  2.7539607840345148  7.0949999999999998   F   F   F
 -1.5900000000000001  2.7539607840345148 21.2850000000000001   T   T   F
  7.9500000000000002  8.2618823521035445 21.2850000000000001   T   T   F
 -3.1800000000000002  5.5079215680690297  7.0949999999999998   F   F   F
 -3.1800000000000002  5.5079215680690297 21.2850000000000001   T   T   F
 -4.7700000000000005  8.2618823521035445  7.0949999999999998   F   F   F
  9.5400000000000009  5.5079215680690297 21.2850000000000001   T   T   F
 -4.7700000000000005  8.2618823521035445 21.2850000000000001   T   T   F
  7.9500000000000002  8.2618823521035445  7.0949999999999998   F   F   F
  9.5400000000000009  5.5079215680690297  7.0949999999999998   F   F   F
 -6.3600000000000003 11.0158431361380593 21.2850000000000001   T   T   F
 -6.3600000000000003 11.0158431361380593  7.0949999999999998   F   F   F
 11.1300000000000008  2.7539607840345148 21.2850000000000001   T   T   F
 14.3100000000000005  0.9179869280115049  5.5000000000000000   F   F   F
  9.5400000000000009  3.6719477120460198 19.6899999999999977   T   T   F
  9.5400000000000009  3.6719477120460198 22.8799999999999990   T   T   F
  9.5400000000000009  9.1798692801150494 22.8799999999999990   T   T   F
  9.5400000000000009  9.1798692801150494 19.6899999999999977   T   T   F
  9.5400000000000009  3.6719477120460198  5.5000000000000000   F   F   F
  9.5400000000000009  3.6719477120460198  8.6899999999999995   F   F   F
 11.1300000000000008  6.4259084960805346  8.6899999999999995   F   F   F
 11.1300000000000008  0.9179869280115049 19.6899999999999977   T   T   F
 11.1300000000000008  0.9179869280115049 22.8799999999999990   T   T   F
 14.3100000000000005  0.9179869280115049 22.8799999999999990   T   T   F
  7.9500000000000002 11.9338300641495643  5.5000000000000000   F   F   F
 11.1300000000000008  0.9179869280115049  5.5000000000000000   F   F   F
 14.3100000000000005  0.9179869280115049 19.6899999999999977   T   T   F
 11.1300000000000008  0.9179869280115049  8.6899999999999995   F   F   F
 12.7200000000000006  3.6719477120460198  5.5000000000000000   F   F   F
 12.7200000000000006  3.6719477120460198 22.8799999999999990   T   T   F
  7.9500000000000002 11.9338300641495643  8.6899999999999995   F   F   F
  7.9500000000000011  6.4259084960805346  8.6899999999999995   F   F   F
  7.9500000000000011  6.4259084960805346  5.5000000000000000   F   F   F
  4.7700000000000005 11.9338300641495643  5.5000000000000000   F   F   F
  4.7700000000000005 11.9338300641495643 22.8799999999999990   T   T   F
  4.7700000000000005 11.9338300641495643  8.6899999999999995   F   F   F
 11.1300000000000008  6.4259084960805346  5.5000000000000000   F   F   F
  4.7700000000000005 11.9338300641495643 19.6899999999999977   T   T   F
  6.3600000000000003  9.1798692801150494 19.6899999999999977   T   T   F
  6.3600000000000003  9.1798692801150494 22.8799999999999990   T   T   F
 11.1300000000000008  6.4259084960805346 22.8799999999999990   T   T   F
  6.3600000000000003  9.1798692801150494  5.5000000000000000   F   F   F
 11.1300000000000008  6.4259084960805346 19.6899999999999977   T   T   F
  6.3600000000000003  9.1798692801150494  8.6899999999999995   F   F   F
 12.7200000000000006  3.6719477120460198 19.6899999999999977   T   T   F
 12.7200000000000006  3.6719477120460198  8.6899999999999995   F   F   F
  7.9500000000000011  6.4259084960805346 19.6899999999999977   T   T   F
  7.9500000000000011  6.4259084960805346 22.8799999999999990   T   T   F
  9.5400000000000009  9.1798692801150494  8.6899999999999995   F   F   F
 14.3100000000000005  0.9179869280115049  8.6899999999999995   F   F   F
  9.5400000000000009  9.1798692801150494  5.5000000000000000   F   F   F
  1.5900000000000001 11.9338300641495643 19.6899999999999977   T   T   F
  7.9500000000000002  0.9179869280115049 22.8799999999999990   T   T   F
  1.5900000000000001 11.9338300641495643  5.5000000000000000   F   F   F
  3.1800000000000002  3.6719477120460198  5.5000000000000000   F   F   F
  3.1800000000000002  3.6719477120460198  8.6899999999999995   F   F   F
  4.7700000000000005  0.9179869280115049 19.6899999999999977   T   T   F
  4.7700000000000005  0.9179869280115049 22.8799999999999990   T   T   F
  4.7700000000000005  0.9179869280115049  5.5000000000000000   F   F   F
  4.7700000000000005  0.9179869280115049  8.6899999999999995   F   F   F
 -4.7700000000000005 11.9338300641495643 19.6899999999999977   T   T   F
 -4.7700000000000005 11.9338300641495643 22.8799999999999990   T   T   F
 -4.7700000000000005 11.9338300641495643  5.5000000000000000   F   F   F
 -4.7700000000000005 11.9338300641495643  8.6899999999999995   F   F   F
 -3.1800000000000006  9.1798692801150494 19.6899999999999977   T   T   F
 -3.1800000000000006  9.1798692801150494 22.8799999999999990   T   T   F
  3.1800000000000002  3.6719477120460198 22.8799999999999990   T   T   F
 -3.1800000000000006  9.1798692801150494  5.5000000000000000   F   F   F
 -1.5900000000000001  6.4259084960805346 19.6899999999999977   T   T   F
 -1.5900000000000001  6.4259084960805346 22.8799999999999990   T   T   F
 -1.5900000000000001  6.4259084960805346  5.5000000000000000   F   F   F
 -1.5900000000000001  6.4259084960805346  8.6899999999999995   F   F   F
  0.0000000000000000  3.6719477120460198 19.6899999999999977   T   T   F
  0.0000000000000000  3.6719477120460198 22.8799999999999990   T   T   F
  0.0000000000000000  3.6719477120460198  5.5000000000000000   F   F   F
  0.0000000000000000  3.6719477120460198  8.6899999999999995   F   F   F
  1.5900000000000001  0.9179869280115049 19.6899999999999977   T   T   F
  1.5900000000000001  0.9179869280115049 22.8799999999999990   T   T   F
  1.5900000000000001  0.9179869280115049  5.5000000000000000   F   F   F
  1.5900000000000001  0.9179869280115049  8.6899999999999995   F   F   F
 -3.1800000000000006  9.1798692801150494  8.6899999999999995   F   F   F
  3.1800000000000002  3.6719477120460198 19.6899999999999977   T   T   F
  1.5900000000000001  6.4259084960805346  8.6899999999999995   F   F   F
  1.5900000000000001  6.4259084960805346  5.5000000000000000   F   F   F
  1.5900000000000001 11.9338300641495643  8.6899999999999995   F   F   F
  3.1799999999999997  9.1798692801150494 19.6899999999999977   T   T   F
  3.1799999999999997  9.1798692801150494 22.8799999999999990   T   T   F
  3.1799999999999997  9.1798692801150494  5.5000000000000000   F   F   F
  3.1799999999999997  9.1798692801150494  8.6899999999999995   F   F   F
  4.7700000000000005  6.4259084960805346 19.6899999999999977   T   T   F
  4.7700000000000005  6.4259084960805346 22.8799999999999990   T   T   F
  4.7700000000000005  6.4259084960805346  5.5000000000000000   F   F   F
  4.7700000000000005  6.4259084960805346  8.6899999999999995   F   F   F
  6.3600000000000003  3.6719477120460198 19.6899999999999977   T   T   F
  6.3600000000000003  3.6719477120460198 22.8799999999999990   T   T   F
  6.3600000000000003  3.6719477120460198  5.5000000000000000   F   F   F
  6.3600000000000003  3.6719477120460198  8.6899999999999995   F   F   F
  7.9500000000000002  0.9179869280115049 19.6899999999999977   T   T   F
  7.9500000000000002 11.9338300641495643 22.8799999999999990   T   T   F
  7.9500000000000002  0.9179869280115049  5.5000000000000000   F   F   F
  7.9500000000000002  0.9179869280115049  8.6899999999999995   F   F   F
 -1.5900000000000001 11.9338300641495643 19.6899999999999977   T   T   F
 -1.5900000000000001 11.9338300641495643 22.8799999999999990   T   T   F
 -1.5900000000000001 11.9338300641495643  5.5000000000000000   F   F   F
 -1.5900000000000001 11.9338300641495643  8.6899999999999995   F   F   F
 -0.0000000000000002  9.1798692801150494 19.6899999999999977   T   T   F
 -0.0000000000000002  9.1798692801150494 22.8799999999999990   T   T   F
 -0.0000000000000002  9.1798692801150494  5.5000000000000000   F   F   F
 -0.0000000000000002  9.1798692801150494  8.6899999999999995   F   F   F
  1.5900000000000001  6.4259084960805346 19.6899999999999977   T   T   F
  1.5900000000000001  6.4259084960805346 22.8799999999999990   T   T   F
  1.5900000000000001 11.9338300641495643 22.8799999999999990   T   T   F
  7.9500000000000002 11.9338300641495643 19.6899999999999977   T   T   F
