 C Cr  H Mo  S                          
   1.00000000000000     
     9.5709464550000014    0.0000000000000000    0.0000000000000000
    -6.3806280268000020   11.0515787236000005    0.0000000000000000
     0.0000000000000000    0.0000000000000000   34.8802625070458063
   C    Cr   H    Mo   S 
    10     1    10    24    48
Direct
  0.5586621573698960  0.5263900783045455  0.8851161809520517
  0.6881088678425116  0.6156845466497330  0.9081565831935380
  0.4382869206142369  0.5627943263052574  0.8817090763870372
  0.4956536475334068  0.6738729869445973  0.9026768033058419
  0.6486090469073575  0.7055484409564199  0.9186894394598908
  0.4520673850504430  0.4054677917075155  0.9848424132109226
  0.2725953993084237  0.4764438354771713  0.9806374272711043
  0.4093943286217395  0.4882176471023028  0.0007731716544834
  0.2282534608305198  0.3841775097424004  0.9518445242980185
  0.3408628678646589  0.3403080409148534  0.9544882154537883
  0.4598248213752410  0.5237657651694607  0.9386314623082008
  0.7194317153322933  0.7822246851918266  0.9375210222015503
  0.4752619556929732  0.5538628367046836  0.0232322963407226
  0.1262364729338158  0.3514110705094090  0.9323544421457822
  0.2132928904541086  0.5287887418556589  0.9859738461176930
  0.5540643500751652  0.3956327032425648  0.9935459969240714
  0.7962317927020690  0.6139763215777815  0.9167049187192809
  0.5547854844112312  0.4483189278960991  0.8714747834999205
  0.3273952645118983  0.5169630151263540  0.8651185393588104
  0.4322780925109813  0.7241214951722640  0.9061557748420326
  0.3397902269738306  0.2691773269563214  0.9371020840037304
  0.5549896104467992  0.0834306684216522  0.2495627910058169
  0.5549856152186123  0.3334270328978841  0.2495605936936208
  0.4542075139929360  0.4220983234952033  0.7473218879886396
  0.5549843965020925  0.5834237565936048  0.2495606710352650
  0.4540917941463768  0.6719315202707042  0.7472397984209216
  0.5549900504317813  0.8334300131645850  0.2495618517363964
  0.4539734882648359  0.9218098641919792  0.7474336139452019
  0.8883269684163722  0.3334237356056681  0.2495718747003697
  0.7873190324554755  0.1718010803681964  0.7475129683425292
  0.7874234553306322  0.4219243659090422  0.7474371204451155
  0.8883250533872126  0.5834216446203142  0.2495726251621905
  0.7875855983790663  0.6719736276768178  0.7471033693711664
  0.8883280772045231  0.8334268836117864  0.2495739373288617
  0.7872988198911792  0.9217849767524684  0.7474128175307999
  0.1206041788665938  0.9218495125396199  0.7473993207668771
  0.8883289277224400  0.0834276996539257  0.2495733631460173
  0.2216389653316679  0.8334257532582554  0.2495666004868482
  0.4539774525111820  0.1718499963671998  0.7475069724643327
  0.2216345056407669  0.5834196273954778  0.2495653989203772
  0.1207089605063599  0.4218820324086874  0.7474439785376178
  0.2216364499487932  0.3334228816340847  0.2495647761728063
  0.2216373779719298  0.0834268352294203  0.2495667104989245
  0.1207188271349941  0.1718591039369639  0.7475127313279956
  0.1206274666562304  0.6718601626563084  0.7473136234650010
  0.7765888620165947  0.1659603831795679  0.2941399349115423
  0.8989613276364515  0.0891029927769388  0.7920654482094738
  0.7766106556992013  0.1659683883695054  0.2050012958894301
  0.8991786242451253  0.0894364272349010  0.7029384593158055
  0.2325157110681865  0.0894793080880376  0.7029277707426561
  0.1099131257349661  0.1659608823138359  0.2049985155878383
  0.7765829725219036  0.4159538545183925  0.2941382370716530
  0.8991519311839515  0.3394364694971908  0.7920384975086880
  0.1099128637359868  0.6659598200607769  0.2049997512612767
  0.5658271149410472  0.8395671399864602  0.7027932722974519
  0.8989500822693950  0.3391327128304233  0.7029136257115761
  0.2322512017104749  0.0891248815431731  0.7920728778522196
  0.1099454207013552  0.1659788843296950  0.2941390955104239
  0.7765808288671505  0.6659527976761764  0.2941384636070123
  0.8989844008691699  0.5895632880694294  0.7919047460724896
  0.7766115478340142  0.6659686772332157  0.2050019101102449
  0.8991902468747792  0.5890189216556563  0.7026950950371025
  0.7765856167644490  0.9159585458568871  0.2941398230672798
  0.8987692707956799  0.8388977175054013  0.7919163883293457
  0.7766085519312814  0.4159653940150148  0.2050002704717495
  0.4432566717450227  0.9159658620953598  0.2049958051095399
  0.4432699288454883  0.9159667718383719  0.2941323158622916
  0.2321831982656360  0.5891293895430941  0.7027650707147551
  0.2325468694944342  0.5895342059324065  0.7918941360313414
  0.1099461149483356  0.9159771729737736  0.2941391765081760
  0.2321689056109480  0.8391250062008869  0.7919589642335625
  0.1099149811347674  0.9159646412538943  0.2050003015186288
  0.2324457253186683  0.8394133564199352  0.7028205665556697
  0.1099435457208620  0.6659731482099832  0.2941377700936533
  0.7766161489523271  0.9159727688143797  0.2050021815415455
  0.4432687062552204  0.1659699077122983  0.2941323913027146
  0.5656126702905633  0.0891508309340125  0.7920712310168462
  0.4432515614886595  0.1659595338016875  0.2049949058547496
  0.5657311994028876  0.0893767169673177  0.7029360374626656
  0.4432659210667282  0.4159647763499607  0.2941306609229324
  0.5657906654469894  0.3396360036568062  0.7920110644624557
  0.4432492298116770  0.4159568129608011  0.2049925064612088
  0.5657656490838359  0.3391771279366005  0.7028793434770730
  0.2321882896175098  0.3391577121765691  0.7028817113502542
  0.1099115589780522  0.4159561934118570  0.2049975444006109
  0.4432664186671046  0.6659637348364889  0.2941303329357571
  0.5666754655545705  0.5899828996743562  0.7914949492230684
  0.4432514498310128  0.6659592452633886  0.2049943767964273
  0.5656043180065298  0.5892791114852979  0.7025686298048243
  0.2328652658754878  0.3396622916769826  0.7920368785037599
  0.1099431738296670  0.4159731884994698  0.2941377364626294
  0.5655764510614346  0.8389958131688604  0.7919872645027658
  0.8993289917948951  0.8397156447072414  0.7027178861658461
 
  0.00000000E+00  0.00000000E+00  0.00000000E+00
  0.00000000E+00  0.00000000E+00  0.00000000E+00
  0.00000000E+00  0.00000000E+00  0.00000000E+00
  0.00000000E+00  0.00000000E+00  0.00000000E+00
  0.00000000E+00  0.00000000E+00  0.00000000E+00
  0.00000000E+00  0.00000000E+00  0.00000000E+00
  0.00000000E+00  0.00000000E+00  0.00000000E+00
  0.00000000E+00  0.00000000E+00  0.00000000E+00
  0.00000000E+00  0.00000000E+00  0.00000000E+00
  0.00000000E+00  0.00000000E+00  0.00000000E+00
  0.00000000E+00  0.00000000E+00  0.00000000E+00
  0.00000000E+00  0.00000000E+00  0.00000000E+00
  0.00000000E+00  0.00000000E+00  0.00000000E+00
  0.00000000E+00  0.00000000E+00  0.00000000E+00
  0.00000000E+00  0.00000000E+00  0.00000000E+00
  0.00000000E+00  0.00000000E+00  0.00000000E+00
  0.00000000E+00  0.00000000E+00  0.00000000E+00
  0.00000000E+00  0.00000000E+00  0.00000000E+00
  0.00000000E+00  0.00000000E+00  0.00000000E+00
  0.00000000E+00  0.00000000E+00  0.00000000E+00
  0.00000000E+00  0.00000000E+00  0.00000000E+00
  0.00000000E+00  0.00000000E+00  0.00000000E+00
  0.00000000E+00  0.00000000E+00  0.00000000E+00
  0.00000000E+00  0.00000000E+00  0.00000000E+00
  0.00000000E+00  0.00000000E+00  0.00000000E+00
  0.00000000E+00  0.00000000E+00  0.00000000E+00
  0.00000000E+00  0.00000000E+00  0.00000000E+00
  0.00000000E+00  0.00000000E+00  0.00000000E+00
  0.00000000E+00  0.00000000E+00  0.00000000E+00
  0.00000000E+00  0.00000000E+00  0.00000000E+00
  0.00000000E+00  0.00000000E+00  0.00000000E+00
  0.00000000E+00  0.00000000E+00  0.00000000E+00
  0.00000000E+00  0.00000000E+00  0.00000000E+00
  0.00000000E+00  0.00000000E+00  0.00000000E+00
  0.00000000E+00  0.00000000E+00  0.00000000E+00
  0.00000000E+00  0.00000000E+00  0.00000000E+00
  0.00000000E+00  0.00000000E+00  0.00000000E+00
  0.00000000E+00  0.00000000E+00  0.00000000E+00
  0.00000000E+00  0.00000000E+00  0.00000000E+00
  0.00000000E+00  0.00000000E+00  0.00000000E+00
  0.00000000E+00  0.00000000E+00  0.00000000E+00
  0.00000000E+00  0.00000000E+00  0.00000000E+00
  0.00000000E+00  0.00000000E+00  0.00000000E+00
  0.00000000E+00  0.00000000E+00  0.00000000E+00
  0.00000000E+00  0.00000000E+00  0.00000000E+00
  0.00000000E+00  0.00000000E+00  0.00000000E+00
  0.00000000E+00  0.00000000E+00  0.00000000E+00
  0.00000000E+00  0.00000000E+00  0.00000000E+00
  0.00000000E+00  0.00000000E+00  0.00000000E+00
  0.00000000E+00  0.00000000E+00  0.00000000E+00
  0.00000000E+00  0.00000000E+00  0.00000000E+00
  0.00000000E+00  0.00000000E+00  0.00000000E+00
  0.00000000E+00  0.00000000E+00  0.00000000E+00
  0.00000000E+00  0.00000000E+00  0.00000000E+00
  0.00000000E+00  0.00000000E+00  0.00000000E+00
  0.00000000E+00  0.00000000E+00  0.00000000E+00
  0.00000000E+00  0.00000000E+00  0.00000000E+00
  0.00000000E+00  0.00000000E+00  0.00000000E+00
  0.00000000E+00  0.00000000E+00  0.00000000E+00
  0.00000000E+00  0.00000000E+00  0.00000000E+00
  0.00000000E+00  0.00000000E+00  0.00000000E+00
  0.00000000E+00  0.00000000E+00  0.00000000E+00
  0.00000000E+00  0.00000000E+00  0.00000000E+00
  0.00000000E+00  0.00000000E+00  0.00000000E+00
  0.00000000E+00  0.00000000E+00  0.00000000E+00
  0.00000000E+00  0.00000000E+00  0.00000000E+00
  0.00000000E+00  0.00000000E+00  0.00000000E+00
  0.00000000E+00  0.00000000E+00  0.00000000E+00
  0.00000000E+00  0.00000000E+00  0.00000000E+00
  0.00000000E+00  0.00000000E+00  0.00000000E+00
  0.00000000E+00  0.00000000E+00  0.00000000E+00
  0.00000000E+00  0.00000000E+00  0.00000000E+00
  0.00000000E+00  0.00000000E+00  0.00000000E+00
  0.00000000E+00  0.00000000E+00  0.00000000E+00
  0.00000000E+00  0.00000000E+00  0.00000000E+00
  0.00000000E+00  0.00000000E+00  0.00000000E+00
  0.00000000E+00  0.00000000E+00  0.00000000E+00
  0.00000000E+00  0.00000000E+00  0.00000000E+00
  0.00000000E+00  0.00000000E+00  0.00000000E+00
  0.00000000E+00  0.00000000E+00  0.00000000E+00
  0.00000000E+00  0.00000000E+00  0.00000000E+00
  0.00000000E+00  0.00000000E+00  0.00000000E+00
  0.00000000E+00  0.00000000E+00  0.00000000E+00
  0.00000000E+00  0.00000000E+00  0.00000000E+00
  0.00000000E+00  0.00000000E+00  0.00000000E+00
  0.00000000E+00  0.00000000E+00  0.00000000E+00
  0.00000000E+00  0.00000000E+00  0.00000000E+00
  0.00000000E+00  0.00000000E+00  0.00000000E+00
  0.00000000E+00  0.00000000E+00  0.00000000E+00
  0.00000000E+00  0.00000000E+00  0.00000000E+00
  0.00000000E+00  0.00000000E+00  0.00000000E+00
  0.00000000E+00  0.00000000E+00  0.00000000E+00
  0.00000000E+00  0.00000000E+00  0.00000000E+00
