 C Co  H Mo  S                          
   1.00000000000000     
     9.5709464550000014    0.0000000000000000    0.0000000000000000
    -6.3806280268000020   11.0515787236000005    0.0000000000000000
     0.0000000000000000    0.0000000000000000   34.8802625070458063
   C    Co   H    Mo   S 
    10     1    10    24    48
Direct
  0.4922227405365132  0.8763331170765343  0.3884560471647922
  0.3612676152858372  0.9003039423787751  0.3879744712418787
  0.5232862911283678  0.8602469852314588  0.4275526167469548
  0.4114969671834298  0.8742818744817041  0.4513003936065545
  0.3115074354469927  0.8991776676923612  0.4267628559513166
  0.6533033654682542  0.1891235692004309  0.3898740127911886
  0.6364456443311139  0.1749836590903797  0.4562011259290255
  0.5679707168261189  0.1961391554338348  0.4225726601575580
  0.7641530385169328  0.1546684054362152  0.4441866867332238
  0.7744027995807392  0.1633689953362815  0.4031852151278255
  0.5495549518247363  0.0288266985730747  0.4200236900216996
  0.2171505826651902  0.9172732864372708  0.4359876089828482
  0.4661684565815438  0.2116049992411588  0.4218090232064045
  0.8371299680804444  0.1331527441471994  0.4629211786240200
  0.5957097583497615  0.1714934074793213  0.4855226590374953
  0.6273366031551477  0.1976075526857085  0.3600618109128237
  0.3119525415923217  0.9196773548331078  0.3626293390328102
  0.5591300358001861  0.8746172948927406  0.3634955763667093
  0.6180314068381003  0.8435143099346019  0.4374941720668117
  0.4065198011319222  0.8701854864464957  0.4824399337308940
  0.8562066910022191  0.1495286963548725  0.3850456684427355
  0.5611669823994654  0.0851310913355257  0.2464727115495245
  0.5609412269662180  0.3349825295326855  0.2467136466168317
  0.4446341740094173  0.4163877329898463  0.7495546442940295
  0.5608639295248186  0.5847055985733032  0.2467881208111321
  0.4446343019305787  0.6663864048168573  0.7495551768884114
  0.5610300785416832  0.8345542500049806  0.2465172349421783
  0.4446338640013375  0.9163866631199241  0.7495542919339006
  0.8944570434499440  0.3349542604468059  0.2467077882894169
  0.7779844954176339  0.1663942701090612  0.7495559580616674
  0.7779819281529616  0.4163918661280249  0.7495564581485086
  0.8942116089912630  0.5847538732480485  0.2467952982173093
  0.7779797950578109  0.6663892229650705  0.7495571658892237
  0.8941294572955953  0.8346103692635403  0.2467838504361424
  0.7779815682649249  0.9163924060962841  0.7495563580500014
  0.1112932615418292  0.9163950088382822  0.7495643103568130
  0.8943345457155722  0.0846615625448343  0.2466731282095799
  0.2273409349045138  0.8346879449839426  0.2465660806306103
  0.4446356290138135  0.1663893431415805  0.7495538222000768
  0.2276532937981369  0.5849177373725418  0.2467887188445676
  0.1112965353168274  0.4163952589296866  0.7495633814714839
  0.2276622090678877  0.3348026010060219  0.2467326970257439
  0.2274468029652213  0.0847273618978916  0.2467045810248057
  0.1112937453365171  0.1663968368558693  0.7495629318832961
  0.1112937767480474  0.6663927661242387  0.7495651567899234
  0.7825716054714541  0.1672587208890151  0.2910810035131604
  0.8896917411553088  0.0838431482343113  0.7941228192692700
  0.7830656694162855  0.1675574481613648  0.2020861704764983
  0.8897213703644350  0.0838581923351021  0.7050091365451477
  0.2230253586849156  0.0838542654862786  0.7050140355366075
  0.1159279011600246  0.1673640072984547  0.2021515955356333
  0.7824001070786875  0.4171779163644692  0.2912807977440354
  0.8896936274344482  0.3338427202345890  0.7941228936424168
  0.1155145804237524  0.6670628310722418  0.2021701418024628
  0.5563803112677124  0.8338515413882601  0.7050076696494159
  0.8897247954045698  0.3338599754174282  0.7050091468867069
  0.2230481108331800  0.0838624665083689  0.7941238470214853
  0.1157264304704810  0.1672709119332984  0.2912414441771710
  0.7824077449775958  0.6672402365386041  0.2913186830794470
  0.8896895483174676  0.5838394647101760  0.7941241096264667
  0.7824018749749958  0.6672405661382412  0.2022405474478605
  0.8897234168404775  0.5838563678502611  0.7050099427516214
  0.7820249291116877  0.9171662421505691  0.2912263203311827
  0.8896909421377766  0.8338422859329755  0.7941230185438904
  0.7825173794479046  0.4174499051280933  0.2021912194054719
  0.4491079390014169  0.9172936966181242  0.2019807444384323
  0.4495796067508046  0.9176344527959425  0.2906406722437821
  0.2230257998612389  0.5838536100912838  0.7050143574595400
  0.2230489382050573  0.5838581728823246  0.7941251362387183
  0.1160033188472946  0.9172338473863100  0.2912408271101863
  0.2230490206586469  0.8338607358893024  0.7941250105736192
  0.1154169062208241  0.9173276668408944  0.2021462690946348
  0.2230214279086545  0.8338493677509058  0.7050144624957858
  0.1159609225903663  0.6676416274127448  0.2912885405546550
  0.7828639011124072  0.9172558349466979  0.2021149642264067
  0.4491230251500863  0.1673414321206393  0.2911063186910730
  0.5563716575888685  0.0838466812095019  0.7941169537041335
  0.4488949230762314  0.1676452305496571  0.2020980500684798
  0.5563823104187133  0.0838545814840966  0.7050073009284014
  0.4489930364770893  0.4172475779829173  0.2913085386294382
  0.5563711546586545  0.3338458193434484  0.7941179416838650
  0.4491594860984022  0.4174747675188931  0.2021708776891808
  0.5563806540032290  0.3338555742462240  0.7050074706165225
  0.2230284240236707  0.3338551109945541  0.7050134607938742
  0.1160873401990111  0.4175529918306645  0.2022047864306272
  0.4493026883125393  0.6675346256234610  0.2912760723010225
  0.5563686556569133  0.5838445164086226  0.7941193781910016
  0.4489144687532501  0.6668652315425031  0.2021472532828510
  0.5563795491672905  0.5838535298368627  0.7050083814107125
  0.2230465536618318  0.3338582358896398  0.7941244697631614
  0.1158612218121548  0.4173073149016817  0.2912624373880772
  0.5563711923991689  0.8338483383489927  0.7941180195060283
  0.8897197282378426  0.8338537969918879  0.7050101330718715
 
  0.00000000E+00  0.00000000E+00  0.00000000E+00
  0.00000000E+00  0.00000000E+00  0.00000000E+00
  0.00000000E+00  0.00000000E+00  0.00000000E+00
  0.00000000E+00  0.00000000E+00  0.00000000E+00
  0.00000000E+00  0.00000000E+00  0.00000000E+00
  0.00000000E+00  0.00000000E+00  0.00000000E+00
  0.00000000E+00  0.00000000E+00  0.00000000E+00
  0.00000000E+00  0.00000000E+00  0.00000000E+00
  0.00000000E+00  0.00000000E+00  0.00000000E+00
  0.00000000E+00  0.00000000E+00  0.00000000E+00
  0.00000000E+00  0.00000000E+00  0.00000000E+00
  0.00000000E+00  0.00000000E+00  0.00000000E+00
  0.00000000E+00  0.00000000E+00  0.00000000E+00
  0.00000000E+00  0.00000000E+00  0.00000000E+00
  0.00000000E+00  0.00000000E+00  0.00000000E+00
  0.00000000E+00  0.00000000E+00  0.00000000E+00
  0.00000000E+00  0.00000000E+00  0.00000000E+00
  0.00000000E+00  0.00000000E+00  0.00000000E+00
  0.00000000E+00  0.00000000E+00  0.00000000E+00
  0.00000000E+00  0.00000000E+00  0.00000000E+00
  0.00000000E+00  0.00000000E+00  0.00000000E+00
  0.00000000E+00  0.00000000E+00  0.00000000E+00
  0.00000000E+00  0.00000000E+00  0.00000000E+00
  0.00000000E+00  0.00000000E+00  0.00000000E+00
  0.00000000E+00  0.00000000E+00  0.00000000E+00
  0.00000000E+00  0.00000000E+00  0.00000000E+00
  0.00000000E+00  0.00000000E+00  0.00000000E+00
  0.00000000E+00  0.00000000E+00  0.00000000E+00
  0.00000000E+00  0.00000000E+00  0.00000000E+00
  0.00000000E+00  0.00000000E+00  0.00000000E+00
  0.00000000E+00  0.00000000E+00  0.00000000E+00
  0.00000000E+00  0.00000000E+00  0.00000000E+00
  0.00000000E+00  0.00000000E+00  0.00000000E+00
  0.00000000E+00  0.00000000E+00  0.00000000E+00
  0.00000000E+00  0.00000000E+00  0.00000000E+00
  0.00000000E+00  0.00000000E+00  0.00000000E+00
  0.00000000E+00  0.00000000E+00  0.00000000E+00
  0.00000000E+00  0.00000000E+00  0.00000000E+00
  0.00000000E+00  0.00000000E+00  0.00000000E+00
  0.00000000E+00  0.00000000E+00  0.00000000E+00
  0.00000000E+00  0.00000000E+00  0.00000000E+00
  0.00000000E+00  0.00000000E+00  0.00000000E+00
  0.00000000E+00  0.00000000E+00  0.00000000E+00
  0.00000000E+00  0.00000000E+00  0.00000000E+00
  0.00000000E+00  0.00000000E+00  0.00000000E+00
  0.00000000E+00  0.00000000E+00  0.00000000E+00
  0.00000000E+00  0.00000000E+00  0.00000000E+00
  0.00000000E+00  0.00000000E+00  0.00000000E+00
  0.00000000E+00  0.00000000E+00  0.00000000E+00
  0.00000000E+00  0.00000000E+00  0.00000000E+00
  0.00000000E+00  0.00000000E+00  0.00000000E+00
  0.00000000E+00  0.00000000E+00  0.00000000E+00
  0.00000000E+00  0.00000000E+00  0.00000000E+00
  0.00000000E+00  0.00000000E+00  0.00000000E+00
  0.00000000E+00  0.00000000E+00  0.00000000E+00
  0.00000000E+00  0.00000000E+00  0.00000000E+00
  0.00000000E+00  0.00000000E+00  0.00000000E+00
  0.00000000E+00  0.00000000E+00  0.00000000E+00
  0.00000000E+00  0.00000000E+00  0.00000000E+00
  0.00000000E+00  0.00000000E+00  0.00000000E+00
  0.00000000E+00  0.00000000E+00  0.00000000E+00
  0.00000000E+00  0.00000000E+00  0.00000000E+00
  0.00000000E+00  0.00000000E+00  0.00000000E+00
  0.00000000E+00  0.00000000E+00  0.00000000E+00
  0.00000000E+00  0.00000000E+00  0.00000000E+00
  0.00000000E+00  0.00000000E+00  0.00000000E+00
  0.00000000E+00  0.00000000E+00  0.00000000E+00
  0.00000000E+00  0.00000000E+00  0.00000000E+00
  0.00000000E+00  0.00000000E+00  0.00000000E+00
  0.00000000E+00  0.00000000E+00  0.00000000E+00
  0.00000000E+00  0.00000000E+00  0.00000000E+00
  0.00000000E+00  0.00000000E+00  0.00000000E+00
  0.00000000E+00  0.00000000E+00  0.00000000E+00
  0.00000000E+00  0.00000000E+00  0.00000000E+00
  0.00000000E+00  0.00000000E+00  0.00000000E+00
  0.00000000E+00  0.00000000E+00  0.00000000E+00
  0.00000000E+00  0.00000000E+00  0.00000000E+00
  0.00000000E+00  0.00000000E+00  0.00000000E+00
  0.00000000E+00  0.00000000E+00  0.00000000E+00
  0.00000000E+00  0.00000000E+00  0.00000000E+00
  0.00000000E+00  0.00000000E+00  0.00000000E+00
  0.00000000E+00  0.00000000E+00  0.00000000E+00
  0.00000000E+00  0.00000000E+00  0.00000000E+00
  0.00000000E+00  0.00000000E+00  0.00000000E+00
  0.00000000E+00  0.00000000E+00  0.00000000E+00
  0.00000000E+00  0.00000000E+00  0.00000000E+00
  0.00000000E+00  0.00000000E+00  0.00000000E+00
  0.00000000E+00  0.00000000E+00  0.00000000E+00
  0.00000000E+00  0.00000000E+00  0.00000000E+00
  0.00000000E+00  0.00000000E+00  0.00000000E+00
  0.00000000E+00  0.00000000E+00  0.00000000E+00
  0.00000000E+00  0.00000000E+00  0.00000000E+00
  0.00000000E+00  0.00000000E+00  0.00000000E+00
