 C Cr  H Mo  S                          
   1.00000000000000     
    15.9000000000000004    0.0000000000000000    0.0000000000000000
    -7.9500000000000037   13.7698039201725724    0.0000000000000000
     0.0000000000000000    0.0000000000000000   32.3799999999999955
   C    Cr   H    Mo   S 
    10     1    10    50   100
Selective dynamics
Direct
  0.5512776994441779  0.4633617790795437  0.3844604273227432   T   T   F
  0.5981716062078830  0.4566325835591016  0.4206482748165357   T   T   F
  0.5213509180667819  0.5330841688522562  0.3915360008763500   T   T   F
  0.5505192145400253  0.5708011957143833  0.4327205156601721   T   T   F
  0.5983038840248605  0.5226886233459462  0.4507907433558174   T   T   F
  0.3623183677409744  0.2737818706102721  0.4526801052847205   T   T   F
  0.3496267388492384  0.3958372668844540  0.4866171622015898   T   T   F
  0.3902401655065200  0.3329994104955309  0.4895192400767598   T   T   F
  0.2973913509464428  0.3754042604652014  0.4487135673813469   T   T   F
  0.3050440164884397  0.3009192272184992  0.4277215646801125   T   T   F
  0.4515325161010283  0.4218218183137433  0.4376288725891513   T   T   F
  0.6300252082454062  0.5352786352460852  0.4814868352533495   T   T   F
  0.4318829835519278  0.3288722098423724  0.5153018148015320   T   T   F
  0.3795462066359070  0.2172841216448829  0.4455027320391025   T   T   F
  0.3586801361194850  0.4506463114177075  0.5090684622144508   T   T   F
  0.2623715283049489  0.4142076892509802  0.4368016329136566   T   T   F
  0.6259200334727701  0.4071451922855213  0.4251604416778534   T   T   F
  0.5360232992749840  0.4190025277423197  0.3568499352969852   T   T   F
  0.4826354446829883  0.5534312223299861  0.3696642487930006   T   T   F
  0.5410815081059062  0.6273893163163941  0.4470290015026137   T   T   F
  0.2750392409848280  0.2718062990553816  0.3974445694093660   T   T   F
  0.6000147261410109  0.6000215599569383  0.6573502161828273   T   T   F
  0.2000000000000028  0.7999999999999972  0.2191167387276067   F   F   F
  0.2000061178499419  0.5999972652438854  0.6573502161828273   T   T   F
  0.6000000000000014  0.7999999999999972  0.2191167387276067   F   F   F
  0.2000000000000028  0.6000000000000014  0.2191167387276067   F   F   F
  0.6000100633104127  0.8000101010985942  0.6573502161828273   T   T   F
  0.2000000000000028  0.3999999999999986  0.2191167387276067   F   F   F
  0.7999999999999972  0.0000000000000000  0.2191167387276067   F   F   F
  0.2000162871512212  0.2000140960259122  0.6573502161828273   T   T   F
  0.8000037054805966  0.0000057381225899  0.6573502161828273   T   T   F
  0.2000000000000028  0.2000000000000028  0.2191167387276067   F   F   F
  0.1999965702600046  0.8000003537127579  0.6573502161828273   T   T   F
  0.1999876913413853  0.3999732072756775  0.6573502161828273   T   T   F
  0.6000000000000014  0.6000000000000014  0.2191167387276067   F   F   F
  0.3999999999999986  0.6000000000000014  0.2191167387276067   F   F   F
  0.3999874123502231  0.0000077603312778  0.6573502161828273   T   T   F
  0.6000044436286820  0.3999955930865669  0.6573502161828273   T   T   F
  0.3999999999999986  0.2000000000000028  0.2191167387276067   F   F   F
  0.6000000000000014  0.3999999999999986  0.2191167387276067   F   F   F
  0.3999699032460785  0.2000119487876623  0.6573502161828273   T   T   F
  0.3999999999999986  0.3999999999999986  0.2191167387276067   F   F   F
  0.6000105692670070  0.2000045325120214  0.6573502161828273   T   T   F
  0.3999609544146496  0.3999435956507132  0.6573502161828273   T   T   F
  0.6000000000000014  0.2000000000000028  0.2191167387276067   F   F   F
  0.4000012636529476  0.7999974853719835  0.6573502161828273   T   T   F
  0.4000067824129211  0.6000069115428868  0.6573502161828273   T   T   F
  0.6000269069945007  0.0000018346591884  0.6573502161828273   T   T   F
  0.3999999999999986  0.7999999999999972  0.2191167387276067   F   F   F
  0.6000000000000014  0.0000000000000000  0.2191167387276067   F   F   F
  0.3999999999999986  0.0000000000000000  0.2191167387276067   F   F   F
  0.7999999999999972  0.2000000000000028  0.2191167387276067   F   F   F
  0.1999989292433884  0.0000141667554889  0.6573502161828273   T   T   F
  0.2000000000000028  0.0000000000000000  0.2191167387276067   F   F   F
  0.0000000000000000  0.0000000000000000  0.2191167387276067   F   F   F
  0.8000031883271426  0.8000035730105001  0.6573502161828273   T   T   F
 -0.0000006971992644  0.0000005944937470  0.6573502161828273   T   T   F
  0.7999999999999972  0.7999999999999972  0.2191167387276067   F   F   F
  0.0000000000000000  0.2000000000000028  0.2191167387276067   F   F   F
 -0.0000003772492035  0.2000047172913656  0.6573502161828273   T   T   F
  0.8000027539095993  0.6000091980365181  0.6573502161828273   T   T   F
  0.0000000000000000  0.3999999999999986  0.2191167387276067   F   F   F
 -0.0000070296957764  0.3999715389259571  0.6573502161828273   T   T   F
  0.0000000000000000  0.6000000000000014  0.2191167387276067   F   F   F
  0.7999899840735895  0.3999893448050311  0.6573502161828273   T   T   F
 -0.0000050262165820  0.6000176201602608  0.6573502161828273   T   T   F
  0.7999999999999972  0.6000000000000014  0.2191167387276067   F   F   F
  0.7999999999999972  0.3999999999999986  0.2191167387276067   F   F   F
 -0.0000083518332560  0.7999961689214182  0.6573502161828273   T   T   F
  0.0000000000000000  0.7999999999999972  0.2191167387276067   F   F   F
  0.8000100373132720  0.1999953754538171  0.6573502161828273   T   T   F
  0.9333333333333300  0.0666666666666700  0.1698579369981488   F   F   F
  0.7333406015317621  0.2666624256429719  0.6080914144533693   T   T   F
  0.7333316510478175  0.2666626408510142  0.7066090179122924   T   T   F
  0.9333321340763835  0.6666692505207634  0.7066090179122924   T   T   F
  0.9333370116055570  0.6666735324881348  0.6080914144533693   T   T   F
  0.7333333333333343  0.2666666666666657  0.1698579369981488   F   F   F
  0.7333333333333343  0.2666666666666657  0.2683755404570718   F   F   F
  0.9333333333333371  0.4666666666666686  0.2683755404570718   F   F   F
  0.7333417100341386  0.0666680328121277  0.6080914144533693   T   T   F
  0.7333367166476046  0.0666676633716578  0.7066090179122924   T   T   F
  0.9333344455006899  0.0666684284090582  0.7066090179122924   T   T   F
  0.9333333333333371  0.8666666666666671  0.1698579369981488   F   F   F
  0.7333333333333343  0.0666666666666700  0.1698579369981488   F   F   F
  0.9333446160946329  0.0666739887997383  0.6080914144533693   T   T   F
  0.7333333333333343  0.0666666666666700  0.2683755404570718   F   F   F
  0.9333333333333300  0.2666666666666657  0.1698579369981488   F   F   F
  0.9333335500278653  0.2666643953781311  0.7066090179122924   T   T   F
  0.9333333333333371  0.8666666666666671  0.2683755404570718   F   F   F
  0.7333333333333343  0.4666666666666686  0.2683755404570718   F   F   F
  0.7333333333333343  0.4666666666666686  0.1698579369981488   F   F   F
  0.7333333333333343  0.8666666666666671  0.1698579369981488   F   F   F
  0.7333342353351678  0.8666675928076304  0.7066090179122924   T   T   F
  0.7333333333333343  0.8666666666666671  0.2683755404570718   F   F   F
  0.9333333333333371  0.4666666666666686  0.1698579369981488   F   F   F
  0.7333427301298698  0.8666762339988049  0.6080914144533693   T   T   F
  0.7333351801763726  0.6666665609635964  0.6080914144533693   T   T   F
  0.7333315604240979  0.6666686947797347  0.7066090179122924   T   T   F
  0.9333323421080385  0.4666637193140047  0.7066090179122924   T   T   F
  0.7333333333333343  0.6666666666666643  0.1698579369981488   F   F   F
  0.9333346380317086  0.4666650351043838  0.6080914144533693   T   T   F
  0.7333333333333343  0.6666666666666643  0.2683755404570718   F   F   F
  0.9333392103231567  0.2666603517939506  0.6080914144533693   T   T   F
  0.9333333333333300  0.2666666666666657  0.2683755404570718   F   F   F
  0.7333364021847485  0.4666735802869372  0.6080914144533693   T   T   F
  0.7333313531017206  0.4666656492208865  0.7066090179122924   T   T   F
  0.9333333333333371  0.6666666666666643  0.2683755404570718   F   F   F
  0.9333333333333300  0.0666666666666700  0.2683755404570718   F   F   F
  0.9333333333333371  0.6666666666666643  0.1698579369981488   F   F   F
  0.5333405111462229  0.8666736664228205  0.6080914144533693   T   T   F
  0.5333392347114828  0.0666708917198226  0.7066090179122924   T   T   F
  0.5333333333333314  0.8666666666666671  0.1698579369981488   F   F   F
  0.3333333333333357  0.2666666666666657  0.1698579369981488   F   F   F
  0.3333333333333357  0.2666666666666657  0.2683755404570718   F   F   F
  0.3333196476385666  0.0666714290639031  0.6080914144533693   T   T   F
  0.3333312981165996  0.0666700454035248  0.7066090179122924   T   T   F
  0.3333333333333357  0.0666666666666700  0.1698579369981488   F   F   F
  0.3333333333333357  0.0666666666666700  0.2683755404570718   F   F   F
  0.1333320996044675  0.8666751692380141  0.6080914144533693   T   T   F
  0.1333326992429724  0.8666687913269457  0.7066090179122924   T   T   F
  0.1333333333333329  0.8666666666666671  0.1698579369981488   F   F   F
  0.1333333333333329  0.8666666666666671  0.2683755404570718   F   F   F
  0.1333285073846400  0.6666672689701191  0.6080914144533693   T   T   F
  0.1333306873549165  0.6666665293962954  0.7066090179122924   T   T   F
  0.3333343707558908  0.2666704828230645  0.7066090179122924   T   T   F
  0.1333333333333329  0.6666666666666643  0.1698579369981488   F   F   F
  0.1333283822904963  0.4666544595659310  0.6080914144533693   T   T   F
  0.1333318774661544  0.4666582913935152  0.7066090179122924   T   T   F
  0.1333333333333329  0.4666666666666686  0.1698579369981488   F   F   F
  0.1333333333333329  0.4666666666666686  0.2683755404570718   F   F   F
  0.1333362964457762  0.2666555284797980  0.6080914144533693   T   T   F
  0.1333334262899458  0.2666639167491290  0.7066090179122924   T   T   F
  0.1333333333333329  0.2666666666666657  0.1698579369981488   F   F   F
  0.1333333333333329  0.2666666666666657  0.2683755404570718   F   F   F
  0.1333361509908186  0.0666765677186029  0.6080914144533693   T   T   F
  0.1333338808808440  0.0666730379520256  0.7066090179122924   T   T   F
  0.1333333333333329  0.0666666666666700  0.1698579369981488   F   F   F
  0.1333333333333329  0.0666666666666700  0.2683755404570718   F   F   F
  0.1333333333333329  0.6666666666666643  0.2683755404570718   F   F   F
  0.3333248149719580  0.2666542364624502  0.6080914144533693   T   T   F
  0.3333333333333357  0.4666666666666686  0.2683755404570718   F   F   F
  0.3333333333333357  0.4666666666666686  0.1698579369981488   F   F   F
  0.5333333333333314  0.8666666666666671  0.2683755404570718   F   F   F
  0.5333405149715138  0.6666679959676232  0.6080914144533693   T   T   F
  0.5333396246751486  0.6666691930049293  0.7066090179122924   T   T   F
  0.5333333333333314  0.6666666666666643  0.1698579369981488   F   F   F
  0.5333333333333314  0.6666666666666643  0.2683755404570718   F   F   F
  0.5333099302783263  0.4666312306072944  0.6080914144533693   T   T   F
  0.5333255640932791  0.4666600007203990  0.7066090179122924   T   T   F
  0.5333333333333314  0.4666666666666686  0.1698579369981488   F   F   F
  0.5333333333333314  0.4666666666666686  0.2683755404570718   F   F   F
  0.5333032059432861  0.2666790646347919  0.6080914144533693   T   T   F
  0.5333300327553893  0.2666673784597601  0.7066090179122924   T   T   F
  0.5333333333333314  0.2666666666666657  0.1698579369981488   F   F   F
  0.5333333333333314  0.2666666666666657  0.2683755404570718   F   F   F
  0.5333354251049514  0.0666645223146751  0.6080914144533693   T   T   F
  0.9333324592830937  0.8666666179093795  0.7066090179122924   T   T   F
  0.5333333333333314  0.0666666666666700  0.1698579369981488   F   F   F
  0.5333333333333314  0.0666666666666700  0.2683755404570718   F   F   F
  0.3333298863367548  0.8666730892182556  0.6080914144533693   T   T   F
  0.3333329824451460  0.8666692981500228  0.7066090179122924   T   T   F
  0.3333333333333357  0.8666666666666671  0.1698579369981488   F   F   F
  0.3333333333333357  0.8666666666666671  0.2683755404570718   F   F   F
  0.3333289211510999  0.6666648112361244  0.6080914144533693   T   T   F
  0.3333359590848274  0.6666660045855086  0.7066090179122924   T   T   F
  0.3333333333333357  0.6666666666666643  0.1698579369981488   F   F   F
  0.3333333333333357  0.6666666666666643  0.2683755404570718   F   F   F
  0.3333320902508263  0.4666548901134518  0.6080914144533693   T   T   F
  0.3333317882743367  0.4666573826617602  0.7066090179122924   T   T   F
  0.5333383049913067  0.8666685404324580  0.7066090179122924   T   T   F
  0.9333428114667032  0.8666761412854159  0.6080914144533693   T   T   F
 
  0.00000000E+00  0.00000000E+00  0.00000000E+00
  0.00000000E+00  0.00000000E+00  0.00000000E+00
  0.00000000E+00  0.00000000E+00  0.00000000E+00
  0.00000000E+00  0.00000000E+00  0.00000000E+00
  0.00000000E+00  0.00000000E+00  0.00000000E+00
  0.00000000E+00  0.00000000E+00  0.00000000E+00
  0.00000000E+00  0.00000000E+00  0.00000000E+00
  0.00000000E+00  0.00000000E+00  0.00000000E+00
  0.00000000E+00  0.00000000E+00  0.00000000E+00
  0.00000000E+00  0.00000000E+00  0.00000000E+00
  0.00000000E+00  0.00000000E+00  0.00000000E+00
  0.00000000E+00  0.00000000E+00  0.00000000E+00
  0.00000000E+00  0.00000000E+00  0.00000000E+00
  0.00000000E+00  0.00000000E+00  0.00000000E+00
  0.00000000E+00  0.00000000E+00  0.00000000E+00
  0.00000000E+00  0.00000000E+00  0.00000000E+00
  0.00000000E+00  0.00000000E+00  0.00000000E+00
  0.00000000E+00  0.00000000E+00  0.00000000E+00
  0.00000000E+00  0.00000000E+00  0.00000000E+00
  0.00000000E+00  0.00000000E+00  0.00000000E+00
  0.00000000E+00  0.00000000E+00  0.00000000E+00
  0.00000000E+00  0.00000000E+00  0.00000000E+00
  0.00000000E+00  0.00000000E+00  0.00000000E+00
  0.00000000E+00  0.00000000E+00  0.00000000E+00
  0.00000000E+00  0.00000000E+00  0.00000000E+00
  0.00000000E+00  0.00000000E+00  0.00000000E+00
  0.00000000E+00  0.00000000E+00  0.00000000E+00
  0.00000000E+00  0.00000000E+00  0.00000000E+00
  0.00000000E+00  0.00000000E+00  0.00000000E+00
  0.00000000E+00  0.00000000E+00  0.00000000E+00
  0.00000000E+00  0.00000000E+00  0.00000000E+00
  0.00000000E+00  0.00000000E+00  0.00000000E+00
  0.00000000E+00  0.00000000E+00  0.00000000E+00
  0.00000000E+00  0.00000000E+00  0.00000000E+00
  0.00000000E+00  0.00000000E+00  0.00000000E+00
  0.00000000E+00  0.00000000E+00  0.00000000E+00
  0.00000000E+00  0.00000000E+00  0.00000000E+00
  0.00000000E+00  0.00000000E+00  0.00000000E+00
  0.00000000E+00  0.00000000E+00  0.00000000E+00
  0.00000000E+00  0.00000000E+00  0.00000000E+00
  0.00000000E+00  0.00000000E+00  0.00000000E+00
  0.00000000E+00  0.00000000E+00  0.00000000E+00
  0.00000000E+00  0.00000000E+00  0.00000000E+00
  0.00000000E+00  0.00000000E+00  0.00000000E+00
  0.00000000E+00  0.00000000E+00  0.00000000E+00
  0.00000000E+00  0.00000000E+00  0.00000000E+00
  0.00000000E+00  0.00000000E+00  0.00000000E+00
  0.00000000E+00  0.00000000E+00  0.00000000E+00
  0.00000000E+00  0.00000000E+00  0.00000000E+00
  0.00000000E+00  0.00000000E+00  0.00000000E+00
  0.00000000E+00  0.00000000E+00  0.00000000E+00
  0.00000000E+00  0.00000000E+00  0.00000000E+00
  0.00000000E+00  0.00000000E+00  0.00000000E+00
  0.00000000E+00  0.00000000E+00  0.00000000E+00
  0.00000000E+00  0.00000000E+00  0.00000000E+00
  0.00000000E+00  0.00000000E+00  0.00000000E+00
  0.00000000E+00  0.00000000E+00  0.00000000E+00
  0.00000000E+00  0.00000000E+00  0.00000000E+00
  0.00000000E+00  0.00000000E+00  0.00000000E+00
  0.00000000E+00  0.00000000E+00  0.00000000E+00
  0.00000000E+00  0.00000000E+00  0.00000000E+00
  0.00000000E+00  0.00000000E+00  0.00000000E+00
  0.00000000E+00  0.00000000E+00  0.00000000E+00
  0.00000000E+00  0.00000000E+00  0.00000000E+00
  0.00000000E+00  0.00000000E+00  0.00000000E+00
  0.00000000E+00  0.00000000E+00  0.00000000E+00
  0.00000000E+00  0.00000000E+00  0.00000000E+00
  0.00000000E+00  0.00000000E+00  0.00000000E+00
  0.00000000E+00  0.00000000E+00  0.00000000E+00
  0.00000000E+00  0.00000000E+00  0.00000000E+00
  0.00000000E+00  0.00000000E+00  0.00000000E+00
  0.00000000E+00  0.00000000E+00  0.00000000E+00
  0.00000000E+00  0.00000000E+00  0.00000000E+00
  0.00000000E+00  0.00000000E+00  0.00000000E+00
  0.00000000E+00  0.00000000E+00  0.00000000E+00
  0.00000000E+00  0.00000000E+00  0.00000000E+00
  0.00000000E+00  0.00000000E+00  0.00000000E+00
  0.00000000E+00  0.00000000E+00  0.00000000E+00
  0.00000000E+00  0.00000000E+00  0.00000000E+00
  0.00000000E+00  0.00000000E+00  0.00000000E+00
  0.00000000E+00  0.00000000E+00  0.00000000E+00
  0.00000000E+00  0.00000000E+00  0.00000000E+00
  0.00000000E+00  0.00000000E+00  0.00000000E+00
  0.00000000E+00  0.00000000E+00  0.00000000E+00
  0.00000000E+00  0.00000000E+00  0.00000000E+00
  0.00000000E+00  0.00000000E+00  0.00000000E+00
  0.00000000E+00  0.00000000E+00  0.00000000E+00
  0.00000000E+00  0.00000000E+00  0.00000000E+00
  0.00000000E+00  0.00000000E+00  0.00000000E+00
  0.00000000E+00  0.00000000E+00  0.00000000E+00
  0.00000000E+00  0.00000000E+00  0.00000000E+00
  0.00000000E+00  0.00000000E+00  0.00000000E+00
  0.00000000E+00  0.00000000E+00  0.00000000E+00
  0.00000000E+00  0.00000000E+00  0.00000000E+00
  0.00000000E+00  0.00000000E+00  0.00000000E+00
  0.00000000E+00  0.00000000E+00  0.00000000E+00
  0.00000000E+00  0.00000000E+00  0.00000000E+00
  0.00000000E+00  0.00000000E+00  0.00000000E+00
  0.00000000E+00  0.00000000E+00  0.00000000E+00
  0.00000000E+00  0.00000000E+00  0.00000000E+00
  0.00000000E+00  0.00000000E+00  0.00000000E+00
  0.00000000E+00  0.00000000E+00  0.00000000E+00
  0.00000000E+00  0.00000000E+00  0.00000000E+00
  0.00000000E+00  0.00000000E+00  0.00000000E+00
  0.00000000E+00  0.00000000E+00  0.00000000E+00
  0.00000000E+00  0.00000000E+00  0.00000000E+00
  0.00000000E+00  0.00000000E+00  0.00000000E+00
  0.00000000E+00  0.00000000E+00  0.00000000E+00
  0.00000000E+00  0.00000000E+00  0.00000000E+00
  0.00000000E+00  0.00000000E+00  0.00000000E+00
  0.00000000E+00  0.00000000E+00  0.00000000E+00
  0.00000000E+00  0.00000000E+00  0.00000000E+00
  0.00000000E+00  0.00000000E+00  0.00000000E+00
  0.00000000E+00  0.00000000E+00  0.00000000E+00
  0.00000000E+00  0.00000000E+00  0.00000000E+00
  0.00000000E+00  0.00000000E+00  0.00000000E+00
  0.00000000E+00  0.00000000E+00  0.00000000E+00
  0.00000000E+00  0.00000000E+00  0.00000000E+00
  0.00000000E+00  0.00000000E+00  0.00000000E+00
  0.00000000E+00  0.00000000E+00  0.00000000E+00
  0.00000000E+00  0.00000000E+00  0.00000000E+00
  0.00000000E+00  0.00000000E+00  0.00000000E+00
  0.00000000E+00  0.00000000E+00  0.00000000E+00
  0.00000000E+00  0.00000000E+00  0.00000000E+00
  0.00000000E+00  0.00000000E+00  0.00000000E+00
  0.00000000E+00  0.00000000E+00  0.00000000E+00
  0.00000000E+00  0.00000000E+00  0.00000000E+00
  0.00000000E+00  0.00000000E+00  0.00000000E+00
  0.00000000E+00  0.00000000E+00  0.00000000E+00
  0.00000000E+00  0.00000000E+00  0.00000000E+00
  0.00000000E+00  0.00000000E+00  0.00000000E+00
  0.00000000E+00  0.00000000E+00  0.00000000E+00
  0.00000000E+00  0.00000000E+00  0.00000000E+00
  0.00000000E+00  0.00000000E+00  0.00000000E+00
  0.00000000E+00  0.00000000E+00  0.00000000E+00
  0.00000000E+00  0.00000000E+00  0.00000000E+00
  0.00000000E+00  0.00000000E+00  0.00000000E+00
  0.00000000E+00  0.00000000E+00  0.00000000E+00
  0.00000000E+00  0.00000000E+00  0.00000000E+00
  0.00000000E+00  0.00000000E+00  0.00000000E+00
  0.00000000E+00  0.00000000E+00  0.00000000E+00
  0.00000000E+00  0.00000000E+00  0.00000000E+00
  0.00000000E+00  0.00000000E+00  0.00000000E+00
  0.00000000E+00  0.00000000E+00  0.00000000E+00
  0.00000000E+00  0.00000000E+00  0.00000000E+00
  0.00000000E+00  0.00000000E+00  0.00000000E+00
  0.00000000E+00  0.00000000E+00  0.00000000E+00
  0.00000000E+00  0.00000000E+00  0.00000000E+00
  0.00000000E+00  0.00000000E+00  0.00000000E+00
  0.00000000E+00  0.00000000E+00  0.00000000E+00
  0.00000000E+00  0.00000000E+00  0.00000000E+00
  0.00000000E+00  0.00000000E+00  0.00000000E+00
  0.00000000E+00  0.00000000E+00  0.00000000E+00
  0.00000000E+00  0.00000000E+00  0.00000000E+00
  0.00000000E+00  0.00000000E+00  0.00000000E+00
  0.00000000E+00  0.00000000E+00  0.00000000E+00
  0.00000000E+00  0.00000000E+00  0.00000000E+00
  0.00000000E+00  0.00000000E+00  0.00000000E+00
  0.00000000E+00  0.00000000E+00  0.00000000E+00
  0.00000000E+00  0.00000000E+00  0.00000000E+00
  0.00000000E+00  0.00000000E+00  0.00000000E+00
  0.00000000E+00  0.00000000E+00  0.00000000E+00
  0.00000000E+00  0.00000000E+00  0.00000000E+00
  0.00000000E+00  0.00000000E+00  0.00000000E+00
  0.00000000E+00  0.00000000E+00  0.00000000E+00
  0.00000000E+00  0.00000000E+00  0.00000000E+00
  0.00000000E+00  0.00000000E+00  0.00000000E+00
  0.00000000E+00  0.00000000E+00  0.00000000E+00
  0.00000000E+00  0.00000000E+00  0.00000000E+00
  0.00000000E+00  0.00000000E+00  0.00000000E+00
  0.00000000E+00  0.00000000E+00  0.00000000E+00
