 C Cr  H Mo  S                          
   1.00000000000000     
    15.9000000000000004    0.0000000000000000    0.0000000000000000
    -7.9500000000000037   13.7698039201725724    0.0000000000000000
     0.0000000000000000    0.0000000000000000   32.3799999999999955
   C    Cr   H    Mo   S 
    10     1    10    50   100
Direct
  0.0537037395915063  0.0989426548874424  0.0682651971676091
  0.1405528394409801  0.1249226081221507  0.0456152455470048
  0.0042038110266184  0.9953642009637853  0.0750403826193735
  0.0616847278542788  0.9587568404846495  0.0560559656363110
  0.1454629103638085  0.0394238149306380  0.0381387113463784
  0.9672443002910260  0.0629511781888641  0.9539735788742693
  0.9167115791897825  0.9040503861820337  0.9724886538755463
  0.9812188811079021  0.9827603705518015  0.9462597999857162
  0.8620076227977268  0.9366172664422160  0.9966116148614333
  0.8944158617330431  0.0356783348292131  0.9850180423203401
  0.0084265015027953  0.0192655077038490  0.0120669057746558
  0.2012348634043992  0.0354478647134331  0.0201956352341176
  0.0340996902969249 -0.0175957445078561  0.9250461293750090
  0.0085112100382452  0.1345742072466714  0.9400045176608443
  0.9090860723322578  0.8321979224557717  0.9733882716799612
  0.8051586459910102  0.8935557760960502  0.0187605621232170
  0.1921128084282886  0.1972702899424256  0.0343738338028825
  0.0299481165580220  0.1485248047867067  0.0790110780559257
  0.9371690144601054  0.9531090125551915  0.0921975342325431
  0.0449205235973663  0.8835423715575348  0.0557533310943877
  0.8681780383762819  0.0816745898402975 -0.0022925800245709
  0.5999431158775089  0.5998684141416887  0.6570996990157678
  0.1989113684109433  0.7949262330594832  0.2155624792569636
  0.1999370316596693  0.5998568927805504  0.6571050455133914
  0.5988999465569351  0.7948926122931146  0.2155685538016167
  0.1989189153028300  0.5949052864448269  0.2155668848554934
  0.5999340369825000  0.7998549163520858  0.6571212367994409
  0.1988934817621712  0.3948624961211792  0.2154592611224276
  0.7989196738601410 -0.0051000009471519  0.2155723535305880
  0.1999182794150411  0.1998390043542473  0.6571400609197418
  0.7999272315302535 -0.0001491334982941  0.6571388349380257
  0.1988250872006759  0.1947624307977335  0.2153188583385968
  0.1999237235406426  0.7998586809941288  0.6571309464850931
  0.1999203195975125  0.3998378649852565  0.6571224675652361
  0.5988714672631387  0.5948580922177698  0.2155720744099139
  0.3988890646168592  0.5949022912152028  0.2155442627094643
  0.3999128545847414 -0.0001409949471732  0.6571064769745431
  0.5999300302796357  0.3998480898672455  0.6570493031559363
  0.3988901375878107  0.1949000297690800  0.2153992202522990
  0.5988778897949129  0.3948731690019743  0.2155433208494845
  0.3999172385521561  0.1998508043182960  0.6570931743331947
  0.3988484077432284  0.3948442493124702  0.2154333005880749
  0.5999235771949357  0.1998508391473801  0.6570504085822305
  0.3999075217942613  0.3998348499327761  0.6570989331688273
  0.5989027189334422  0.1949001067833797  0.2155385941043542
  0.3999302237334118  0.7998571434744158  0.6571016980377756
  0.3999270233749009  0.5998568178965905  0.6570974087570702
  0.5999476365561488 -0.0001438211099658  0.6571038697674214
  0.3989039259381801  0.7949277766257399  0.2155666337519323
  0.5989061250549014 -0.0050824408661427  0.2155493145651352
  0.3988666526578570 -0.0050780249312554  0.2154946466187059
  0.7989390680010966  0.1948820699795907  0.2155468689191632
  0.1999241998381689 -0.0001442528793987  0.6571416816086648
  0.1988421572027075 -0.0050876075350292  0.2154475013200973
 -0.0009821545867974 -0.0051123304136855  0.2153256728217843
  0.7999318245707339  0.7998607925775022  0.6571343642785769
 -0.0000756444958011 -0.0001457460650032  0.6571456369910806
  0.7988757327681836  0.7948194139196245  0.2156484120690920
 -0.0010790306511252  0.1948670543795685  0.2154368477965161
 -0.0000861721306621  0.1998358702717680  0.6571423288237630
  0.7999295330330218  0.5998612007953553  0.6570949108668693
 -0.0010741111975062  0.3948822624934150  0.2155376787801370
 -0.0000727307560787  0.3998338959487802  0.6571083481126919
 -0.0010979836956412  0.5948364304732374  0.2156158598740696
  0.7999183305013208  0.3998483441882348  0.6570570732527543
 -0.0000708975028413  0.5998738074996038  0.6571114921556194
  0.7989144524860465  0.5948701261958187  0.2156328514872052
  0.7989034736688032  0.3948682814449200  0.2155962969538387
 -0.0000743652992564  0.7998639818732290  0.6571406736619778
 -0.0010635136926958  0.7947806969763712  0.2156398834202731
  0.7999274698105930  0.1998461831127284  0.6570976361002321
  0.9320114815002296  0.0614890882066757  0.1672350589418816
  0.7332843558594634  0.2664970931276206  0.6088060836587216
  0.7332253713117168  0.2665331258114466  0.7053143629197033
  0.9332272427678545  0.6664875173229396  0.7053705789230981
  0.9332925347003714  0.6665780228175592  0.6088616891728085
  0.7322889547873596  0.2615975827259837  0.1673228042209492
  0.7322116697451738  0.2614833581381224  0.2638216341606338
  0.9322631783041341  0.4614609873501364  0.2638515475167226
  0.7332941281905183  0.0664987980055297  0.6088555811364944
  0.7332429012122725  0.0665420111330193  0.7053670923902757
  0.9332429733571761  0.0665090344935843  0.7054021638308700
  0.9320570099325661  0.8609968247149430  0.1674252196318493
  0.7322471279997652  0.0615560020183533  0.1673004665764321
  0.9332638283322318  0.0665058854366436  0.6088876503982408
  0.7322612491856696  0.0615824271062298  0.2638170097497379
  0.9322023078246385  0.2616003305483273  0.1672346798193339
  0.9332241844807090  0.2665246293858083  0.7053706206057039
  0.9324022756987044  0.8617757583090057  0.2638102398618077
  0.7321417842407524  0.4614655372161102  0.2638542374304321
  0.7323088596035373  0.4616085378117892  0.1673511132406369
  0.7323186923802085  0.8615292599609219  0.1673189425579292
  0.7332375315911718  0.8665053126806024  0.7053877534136546
  0.7322479459588203  0.8616150980080317  0.2638481299743631
  0.9322120150764570  0.4615787177936116  0.1673364515469908
  0.7332853575591932  0.8665348765533909  0.6088762449968472
  0.7332940858049223  0.6665744205318314  0.6088532090631698
  0.7332431005670892  0.6664846335904245  0.7053630626960944
  0.9332055016957135  0.4664886978750065  0.7053380116264871
  0.7322795944380631  0.6615289745776666  0.1673656022927781
  0.9333202335999060  0.4665519355747115  0.6088365137434733
  0.7321539669072771  0.6614808339924977  0.2638826454372150
  0.9332862978102436  0.2664895947797375  0.6088609575377649
  0.9323580728365334  0.2614957432148791  0.2637678136932359
  0.7332884158051628  0.4665642218911429  0.6088054131293245
  0.7332291527643855  0.4664738288327975  0.7053133415148820
  0.9322687045947627  0.6614981709271599  0.2639091943858380
  0.9324638152636059  0.0615641392938433  0.2637046887001962
  0.9322321842382612  0.6614785966967406  0.1673717019005977
  0.5332802512833255  0.8665160163380025  0.6088488831737648
  0.5332899555978178  0.0665701985030280  0.7053323631634627
  0.5322332343463668  0.8615618664635465  0.1673126415625742
  0.3322453326238065  0.2615487500920868  0.1670875860179796
  0.3320698288668726  0.2614383342732326  0.2636191305854788
  0.3331998348780567  0.0664925603289701  0.6088577673292553
  0.3333089015575278  0.0665564534798764  0.7053683844576846
  0.3321537931619956  0.0614915879752618  0.1671684057562474
  0.3321899098809938  0.0616717370323893  0.2636957824170437
  0.1332513083075479  0.8665323142996942  0.6088871211961490
  0.1332656620330157  0.8665147149935165  0.7053960054749873
  0.1321133119957123  0.8614356569711996  0.1672567676676873
  0.1323552340668472  0.8617266101740395  0.2638119798762948
  0.1332687771875952  0.6665482252793766  0.6088611380308148
  0.1332540477291364  0.6664970665143523  0.7053680652185688
  0.3333046470250337  0.2665377309733626  0.7053644984866384
  0.1322083522431540  0.6615666333841030  0.1673422659951188
  0.1332684407367046  0.4665003203154393  0.6088551601848291
  0.1332535890765108  0.4665211787233928  0.7053625009477104
  0.1322331905900891  0.4616375748532918  0.1672705123006890
  0.1322823532935837  0.4614718789885408  0.2637750477201816
  0.1332326966802211  0.2664750180801272  0.6088831974717046
  0.1332628274349668  0.2665287197954543  0.7053908815351505
  0.1321899007144750  0.2615619791147702  0.1670964874289267
  0.1322677525384266  0.2614206622893275  0.2636409544320784
  0.1332425232248551  0.0665034142140463  0.6088897483078166
  0.1332602217866689  0.0665169980824258  0.7054027049640690
  0.1323294810117195  0.0614284744254730  0.1670366586507332
  0.1322175426002107  0.0616215460967605  0.2636437764228098
  0.1323092553772214  0.6616011960137583  0.2638429400143020
  0.3331937426481835  0.2664842778077310  0.6088556198860221
  0.3321751525518831  0.4614328224763393  0.2637288318245216
  0.3322530836019799  0.4616548916178125  0.1672158181044349
  0.5322426171151653  0.8615981382256899  0.2638194067142395
  0.5332778981331870  0.6665440133376200  0.6088467675151388
  0.5332527035873988  0.6664977472436789  0.7053554696447809
  0.5322532123145366  0.6615801412322057  0.1673139102602390
  0.5321846039446935  0.6615414188605244  0.2638181785198073
  0.5332323992660231  0.4665442227583639  0.6088233498799261
  0.5332853025487437  0.4664939500989513  0.7053276573415702
  0.5323257275088427  0.4616151497204635  0.1672632445900960
  0.5320382211634275  0.4614087707089576  0.2637683383031856
  0.5332087857009634  0.2664905226239341  0.6088015928428271
  0.5333059522699959  0.2665404538200860  0.7053096907282318
  0.5323677507556712  0.2616198996806215  0.1672362316462549
  0.5320698863844137  0.2614775359633769  0.2637526302685120
  0.5332260943558950  0.0664565912866713  0.6088258981953449
  0.9332453005512749  0.8665132080360948  0.7053997155994914
  0.5322505844282721  0.0615778144624276  0.1672779613860826
  0.5321543231821892  0.0615626728591529  0.2637846228580364
  0.3332271128902243  0.8665146557657006  0.6088558099113340
  0.3332943783055082  0.8665413098321973  0.7053638660716628
  0.3321931347275933  0.8615326443981122  0.1672878022292406
  0.3322697814113429  0.8616776575023004  0.2638071012533624
  0.3332609948382503  0.6665298960953041  0.6088420754158842
  0.3332738159671056  0.6665258419942659  0.7053484287502338
  0.3322375761328522  0.6616238502061649  0.1673108118769958
  0.3322571025326835  0.6615767593562687  0.2638223454257396
  0.3332255449491865  0.4664968582200575  0.6088480898343246
  0.3332849532686338  0.4665289580703846  0.7053558631030080
  0.5332608531577220  0.8665353580327265  0.7053582973816012
  0.9332753975738092  0.8665434127988279  0.6088863723619041
 
  0.00000000E+00  0.00000000E+00  0.00000000E+00
  0.00000000E+00  0.00000000E+00  0.00000000E+00
  0.00000000E+00  0.00000000E+00  0.00000000E+00
  0.00000000E+00  0.00000000E+00  0.00000000E+00
  0.00000000E+00  0.00000000E+00  0.00000000E+00
  0.00000000E+00  0.00000000E+00  0.00000000E+00
  0.00000000E+00  0.00000000E+00  0.00000000E+00
  0.00000000E+00  0.00000000E+00  0.00000000E+00
  0.00000000E+00  0.00000000E+00  0.00000000E+00
  0.00000000E+00  0.00000000E+00  0.00000000E+00
  0.00000000E+00  0.00000000E+00  0.00000000E+00
  0.00000000E+00  0.00000000E+00  0.00000000E+00
  0.00000000E+00  0.00000000E+00  0.00000000E+00
  0.00000000E+00  0.00000000E+00  0.00000000E+00
  0.00000000E+00  0.00000000E+00  0.00000000E+00
  0.00000000E+00  0.00000000E+00  0.00000000E+00
  0.00000000E+00  0.00000000E+00  0.00000000E+00
  0.00000000E+00  0.00000000E+00  0.00000000E+00
  0.00000000E+00  0.00000000E+00  0.00000000E+00
  0.00000000E+00  0.00000000E+00  0.00000000E+00
  0.00000000E+00  0.00000000E+00  0.00000000E+00
  0.00000000E+00  0.00000000E+00  0.00000000E+00
  0.00000000E+00  0.00000000E+00  0.00000000E+00
  0.00000000E+00  0.00000000E+00  0.00000000E+00
  0.00000000E+00  0.00000000E+00  0.00000000E+00
  0.00000000E+00  0.00000000E+00  0.00000000E+00
  0.00000000E+00  0.00000000E+00  0.00000000E+00
  0.00000000E+00  0.00000000E+00  0.00000000E+00
  0.00000000E+00  0.00000000E+00  0.00000000E+00
  0.00000000E+00  0.00000000E+00  0.00000000E+00
  0.00000000E+00  0.00000000E+00  0.00000000E+00
  0.00000000E+00  0.00000000E+00  0.00000000E+00
  0.00000000E+00  0.00000000E+00  0.00000000E+00
  0.00000000E+00  0.00000000E+00  0.00000000E+00
  0.00000000E+00  0.00000000E+00  0.00000000E+00
  0.00000000E+00  0.00000000E+00  0.00000000E+00
  0.00000000E+00  0.00000000E+00  0.00000000E+00
  0.00000000E+00  0.00000000E+00  0.00000000E+00
  0.00000000E+00  0.00000000E+00  0.00000000E+00
  0.00000000E+00  0.00000000E+00  0.00000000E+00
  0.00000000E+00  0.00000000E+00  0.00000000E+00
  0.00000000E+00  0.00000000E+00  0.00000000E+00
  0.00000000E+00  0.00000000E+00  0.00000000E+00
  0.00000000E+00  0.00000000E+00  0.00000000E+00
  0.00000000E+00  0.00000000E+00  0.00000000E+00
  0.00000000E+00  0.00000000E+00  0.00000000E+00
  0.00000000E+00  0.00000000E+00  0.00000000E+00
  0.00000000E+00  0.00000000E+00  0.00000000E+00
  0.00000000E+00  0.00000000E+00  0.00000000E+00
  0.00000000E+00  0.00000000E+00  0.00000000E+00
  0.00000000E+00  0.00000000E+00  0.00000000E+00
  0.00000000E+00  0.00000000E+00  0.00000000E+00
  0.00000000E+00  0.00000000E+00  0.00000000E+00
  0.00000000E+00  0.00000000E+00  0.00000000E+00
  0.00000000E+00  0.00000000E+00  0.00000000E+00
  0.00000000E+00  0.00000000E+00  0.00000000E+00
  0.00000000E+00  0.00000000E+00  0.00000000E+00
  0.00000000E+00  0.00000000E+00  0.00000000E+00
  0.00000000E+00  0.00000000E+00  0.00000000E+00
  0.00000000E+00  0.00000000E+00  0.00000000E+00
  0.00000000E+00  0.00000000E+00  0.00000000E+00
  0.00000000E+00  0.00000000E+00  0.00000000E+00
  0.00000000E+00  0.00000000E+00  0.00000000E+00
  0.00000000E+00  0.00000000E+00  0.00000000E+00
  0.00000000E+00  0.00000000E+00  0.00000000E+00
  0.00000000E+00  0.00000000E+00  0.00000000E+00
  0.00000000E+00  0.00000000E+00  0.00000000E+00
  0.00000000E+00  0.00000000E+00  0.00000000E+00
  0.00000000E+00  0.00000000E+00  0.00000000E+00
  0.00000000E+00  0.00000000E+00  0.00000000E+00
  0.00000000E+00  0.00000000E+00  0.00000000E+00
  0.00000000E+00  0.00000000E+00  0.00000000E+00
  0.00000000E+00  0.00000000E+00  0.00000000E+00
  0.00000000E+00  0.00000000E+00  0.00000000E+00
  0.00000000E+00  0.00000000E+00  0.00000000E+00
  0.00000000E+00  0.00000000E+00  0.00000000E+00
  0.00000000E+00  0.00000000E+00  0.00000000E+00
  0.00000000E+00  0.00000000E+00  0.00000000E+00
  0.00000000E+00  0.00000000E+00  0.00000000E+00
  0.00000000E+00  0.00000000E+00  0.00000000E+00
  0.00000000E+00  0.00000000E+00  0.00000000E+00
  0.00000000E+00  0.00000000E+00  0.00000000E+00
  0.00000000E+00  0.00000000E+00  0.00000000E+00
  0.00000000E+00  0.00000000E+00  0.00000000E+00
  0.00000000E+00  0.00000000E+00  0.00000000E+00
  0.00000000E+00  0.00000000E+00  0.00000000E+00
  0.00000000E+00  0.00000000E+00  0.00000000E+00
  0.00000000E+00  0.00000000E+00  0.00000000E+00
  0.00000000E+00  0.00000000E+00  0.00000000E+00
  0.00000000E+00  0.00000000E+00  0.00000000E+00
  0.00000000E+00  0.00000000E+00  0.00000000E+00
  0.00000000E+00  0.00000000E+00  0.00000000E+00
  0.00000000E+00  0.00000000E+00  0.00000000E+00
  0.00000000E+00  0.00000000E+00  0.00000000E+00
  0.00000000E+00  0.00000000E+00  0.00000000E+00
  0.00000000E+00  0.00000000E+00  0.00000000E+00
  0.00000000E+00  0.00000000E+00  0.00000000E+00
  0.00000000E+00  0.00000000E+00  0.00000000E+00
  0.00000000E+00  0.00000000E+00  0.00000000E+00
  0.00000000E+00  0.00000000E+00  0.00000000E+00
  0.00000000E+00  0.00000000E+00  0.00000000E+00
  0.00000000E+00  0.00000000E+00  0.00000000E+00
  0.00000000E+00  0.00000000E+00  0.00000000E+00
  0.00000000E+00  0.00000000E+00  0.00000000E+00
  0.00000000E+00  0.00000000E+00  0.00000000E+00
  0.00000000E+00  0.00000000E+00  0.00000000E+00
  0.00000000E+00  0.00000000E+00  0.00000000E+00
  0.00000000E+00  0.00000000E+00  0.00000000E+00
  0.00000000E+00  0.00000000E+00  0.00000000E+00
  0.00000000E+00  0.00000000E+00  0.00000000E+00
  0.00000000E+00  0.00000000E+00  0.00000000E+00
  0.00000000E+00  0.00000000E+00  0.00000000E+00
  0.00000000E+00  0.00000000E+00  0.00000000E+00
  0.00000000E+00  0.00000000E+00  0.00000000E+00
  0.00000000E+00  0.00000000E+00  0.00000000E+00
  0.00000000E+00  0.00000000E+00  0.00000000E+00
  0.00000000E+00  0.00000000E+00  0.00000000E+00
  0.00000000E+00  0.00000000E+00  0.00000000E+00
  0.00000000E+00  0.00000000E+00  0.00000000E+00
  0.00000000E+00  0.00000000E+00  0.00000000E+00
  0.00000000E+00  0.00000000E+00  0.00000000E+00
  0.00000000E+00  0.00000000E+00  0.00000000E+00
  0.00000000E+00  0.00000000E+00  0.00000000E+00
  0.00000000E+00  0.00000000E+00  0.00000000E+00
  0.00000000E+00  0.00000000E+00  0.00000000E+00
  0.00000000E+00  0.00000000E+00  0.00000000E+00
  0.00000000E+00  0.00000000E+00  0.00000000E+00
  0.00000000E+00  0.00000000E+00  0.00000000E+00
  0.00000000E+00  0.00000000E+00  0.00000000E+00
  0.00000000E+00  0.00000000E+00  0.00000000E+00
  0.00000000E+00  0.00000000E+00  0.00000000E+00
  0.00000000E+00  0.00000000E+00  0.00000000E+00
  0.00000000E+00  0.00000000E+00  0.00000000E+00
  0.00000000E+00  0.00000000E+00  0.00000000E+00
  0.00000000E+00  0.00000000E+00  0.00000000E+00
  0.00000000E+00  0.00000000E+00  0.00000000E+00
  0.00000000E+00  0.00000000E+00  0.00000000E+00
  0.00000000E+00  0.00000000E+00  0.00000000E+00
  0.00000000E+00  0.00000000E+00  0.00000000E+00
  0.00000000E+00  0.00000000E+00  0.00000000E+00
  0.00000000E+00  0.00000000E+00  0.00000000E+00
  0.00000000E+00  0.00000000E+00  0.00000000E+00
  0.00000000E+00  0.00000000E+00  0.00000000E+00
  0.00000000E+00  0.00000000E+00  0.00000000E+00
  0.00000000E+00  0.00000000E+00  0.00000000E+00
  0.00000000E+00  0.00000000E+00  0.00000000E+00
  0.00000000E+00  0.00000000E+00  0.00000000E+00
  0.00000000E+00  0.00000000E+00  0.00000000E+00
  0.00000000E+00  0.00000000E+00  0.00000000E+00
  0.00000000E+00  0.00000000E+00  0.00000000E+00
  0.00000000E+00  0.00000000E+00  0.00000000E+00
  0.00000000E+00  0.00000000E+00  0.00000000E+00
  0.00000000E+00  0.00000000E+00  0.00000000E+00
  0.00000000E+00  0.00000000E+00  0.00000000E+00
  0.00000000E+00  0.00000000E+00  0.00000000E+00
  0.00000000E+00  0.00000000E+00  0.00000000E+00
  0.00000000E+00  0.00000000E+00  0.00000000E+00
  0.00000000E+00  0.00000000E+00  0.00000000E+00
  0.00000000E+00  0.00000000E+00  0.00000000E+00
  0.00000000E+00  0.00000000E+00  0.00000000E+00
  0.00000000E+00  0.00000000E+00  0.00000000E+00
  0.00000000E+00  0.00000000E+00  0.00000000E+00
  0.00000000E+00  0.00000000E+00  0.00000000E+00
  0.00000000E+00  0.00000000E+00  0.00000000E+00
  0.00000000E+00  0.00000000E+00  0.00000000E+00
  0.00000000E+00  0.00000000E+00  0.00000000E+00
  0.00000000E+00  0.00000000E+00  0.00000000E+00
  0.00000000E+00  0.00000000E+00  0.00000000E+00
  0.00000000E+00  0.00000000E+00  0.00000000E+00
  0.00000000E+00  0.00000000E+00  0.00000000E+00
  0.00000000E+00  0.00000000E+00  0.00000000E+00
