 C Cr  H Mo  S                          
   1.00000000000000     
    15.9000000000000004    0.0000000000000000    0.0000000000000000
    -7.9500000000000037   13.7698039201725724    0.0000000000000000
     0.0000000000000000    0.0000000000000000   32.3799999999999955
   C    Cr   H    Mo   S 
    10     1    10    50   100
Selective dynamics
Direct
  0.4490959456721668  0.3442818716591158  0.3810235784940847   T   T   T
  0.4899770136384041  0.3176320359890683  0.4140702750032147   T   T   T
  0.5052067331047133  0.4469485839045202  0.3755816658461439   T   T   T
  0.5826723615199505  0.4848265818218561  0.4054503555369145   T   T   T
  0.5726722044139111  0.4038101009094988  0.4295134197954228   T   T   T
  0.3322109308238966  0.3575324034300897  0.4789516309819772   T   T   T
  0.4602901630591715  0.5150762992084135  0.4880682850703071   T   T   T
  0.4217581078130959  0.4160444154454189  0.5011986186707620   T   T   T
  0.3953493101027379  0.5174624403315108  0.4583640244733984   T   T   T
  0.3169073637529108  0.4212241365159977  0.4525728361489324   T   T   T
  0.4510710205438274  0.4220252615539544  0.4378387980087025   T   T   T
  0.6200866407624329  0.4072547359299226  0.4544519937371008   T   T   T
  0.4530370042984260  0.3905372679361260  0.5245133955695199   T   T   T
  0.2839009018084009  0.2796901629872515  0.4822537383439888   T   T   T
  0.5280233961226767  0.5771251470411081  0.4984321771887967   T   T   T
  0.4067931328779124  0.5812355695241617  0.4412782575212919   T   T   T
  0.4611629557982159  0.2447923531096128  0.4265081671567965   T   T   T
  0.3831232738341390  0.2953156198905776  0.3642685084644602   T   T   T
  0.4913308480013243  0.4889511555867247  0.3528897712108578   T   T   T
  0.6398731743801448  0.5601771426149177  0.4084669031278689   T   T   T
  0.2572803095379028  0.3995007694253016  0.4309057399886161   T   T   T
  0.6000117819791719  0.6000191556614272  0.6573492630695598   T   T   T
  0.2000000000000028  0.7999999999999972  0.2191167387276067   F   F   F
  0.2000079908084854  0.6000034012331944  0.6573449052888513   T   T   T
  0.6000000000000014  0.7999999999999972  0.2191167387276067   F   F   F
  0.2000000000000028  0.6000000000000014  0.2191167387276067   F   F   F
  0.6000105158090174  0.8000073193182488  0.6573490057636311   T   T   T
  0.2000000000000028  0.3999999999999986  0.2191167387276067   F   F   F
  0.7999999999999972  0.0000000000000000  0.2191167387276067   F   F   F
  0.2000041853584240  0.2000151901564687  0.6573482546389423   T   T   T
  0.8000026964189215  0.0000030485310927  0.6573483340112504   T   T   T
  0.2000000000000028  0.2000000000000028  0.2191167387276067   F   F   F
  0.1999942041756005  0.7999999165613035  0.6573478696563674   T   T   T
  0.2000260170622306  0.3999989398715593  0.6573474353398395   T   T   T
  0.6000000000000014  0.6000000000000014  0.2191167387276067   F   F   F
  0.3999999999999986  0.6000000000000014  0.2191167387276067   F   F   F
  0.3999843505894471  0.0000010756475750  0.6573469959948796   T   T   T
  0.6000066062583010  0.4000125401089176  0.6573551108683037   T   T   T
  0.3999999999999986  0.2000000000000028  0.2191167387276067   F   F   F
  0.6000000000000014  0.3999999999999986  0.2191167387276067   F   F   F
  0.3999796685154408  0.2000002803146001  0.6573492984591849   T   T   T
  0.3999999999999986  0.3999999999999986  0.2191167387276067   F   F   F
  0.6000135989226091  0.1999987518392354  0.6573469378452381   T   T   T
  0.3999710742027577  0.3999995915507825  0.6573098965481516   T   T   T
  0.6000000000000014  0.2000000000000028  0.2191167387276067   F   F   F
  0.3999934948761873  0.7999850681895662  0.6573483212376232   T   T   T
  0.3999895602520324  0.5999698174823127  0.6573394865719084   T   T   T
  0.6000219951098817  0.0000003646154499  0.6573472870671602   T   T   T
  0.3999999999999986  0.7999999999999972  0.2191167387276067   F   F   F
  0.6000000000000014  0.0000000000000000  0.2191167387276067   F   F   F
  0.3999999999999986  0.0000000000000000  0.2191167387276067   F   F   F
  0.7999999999999972  0.2000000000000028  0.2191167387276067   F   F   F
  0.2000014539606625  0.0000031230033722  0.6573475944364102   T   T   T
  0.2000000000000028  0.0000000000000000  0.2191167387276067   F   F   F
  0.0000000000000000  0.0000000000000000  0.2191167387276067   F   F   F
  0.8000086148799234  0.8000114387331748  0.6573474954631952   T   T   T
 -0.0000112546049856 -0.0000087442093991  0.6573388585818108   T   T   T
  0.7999999999999972  0.7999999999999972  0.2191167387276067   F   F   F
  0.0000000000000000  0.2000000000000028  0.2191167387276067   F   F   F
 -0.0000055586427010  0.1999964345951874  0.6573507951557579   T   T   T
  0.8000025024781290  0.6000075589638153  0.6573424993794733   T   T   T
  0.0000000000000000  0.3999999999999986  0.2191167387276067   F   F   F
  0.0000027738919034  0.3999824731949077  0.6573487287099519   T   T   T
  0.0000000000000000  0.6000000000000014  0.2191167387276067   F   F   F
  0.7999940389833153  0.3999914799901165  0.6573462177845376   T   T   T
 -0.0000004642646343  0.6000224670932044  0.6573474880507094   T   T   T
  0.7999999999999972  0.6000000000000014  0.2191167387276067   F   F   F
  0.7999999999999972  0.3999999999999986  0.2191167387276067   F   F   F
 -0.0000053574832607  0.7999968776111122  0.6573487787756720   T   T   T
  0.0000000000000000  0.7999999999999972  0.2191167387276067   F   F   F
  0.8000083066800254  0.1999945781218884  0.6573462379841006   T   T   T
  0.9333333333333300  0.0666666666666700  0.1698579369981488   F   F   F
  0.7333363423248933  0.2666643845526213  0.6090930163278249   T   T   T
  0.7333323098763813  0.2666653912269766  0.7056053403407585   T   T   T
  0.9333313785298480  0.6666668570113756  0.7056071787318243   T   T   T
  0.9333354950439214  0.6666680841204882  0.6090931296677099   T   T   T
  0.7333333333333343  0.2666666666666657  0.1698579369981488   F   F   F
  0.7333333333333343  0.2666666666666657  0.2683755404570718   F   F   F
  0.9333333333333371  0.4666666666666686  0.2683755404570718   F   F   F
  0.7333367801132388  0.0666673356417136  0.6090928338051621   T   T   T
  0.7333355958037634  0.0666662900683750  0.7056076224835752   T   T   T
  0.9333337664548222  0.0666666471939648  0.7056063511153272   T   T   T
  0.9333333333333371  0.8666666666666671  0.1698579369981488   F   F   F
  0.7333333333333343  0.0666666666666700  0.1698579369981488   F   F   F
  0.9333370381190360  0.0666749793192298  0.6090922115910209   T   T   T
  0.7333333333333343  0.0666666666666700  0.2683755404570718   F   F   F
  0.9333333333333300  0.2666666666666657  0.1698579369981488   F   F   F
  0.9333328988241522  0.2666652422864392  0.7056077091041179   T   T   T
  0.9333333333333371  0.8666666666666671  0.2683755404570718   F   F   F
  0.7333333333333343  0.4666666666666686  0.2683755404570718   F   F   F
  0.7333333333333343  0.4666666666666686  0.1698579369981488   F   F   F
  0.7333333333333343  0.8666666666666671  0.1698579369981488   F   F   F
  0.7333323482895321  0.8666660692246686  0.7056065540517853   T   T   T
  0.7333333333333343  0.8666666666666671  0.2683755404570718   F   F   F
  0.9333333333333371  0.4666666666666686  0.1698579369981488   F   F   F
  0.7333287984602029  0.8666655196154722  0.6090920803865079   T   T   T
  0.7333317592178361  0.6666683664160282  0.6090834482567170   T   T   T
  0.7333279906676737  0.6666672241202343  0.7056070763613297   T   T   T
  0.9333331141148119  0.4666666206972727  0.7056065825621739   T   T   T
  0.7333333333333343  0.6666666666666643  0.1698579369981488   F   F   F
  0.9333383613857158  0.4666665925242399  0.6090926054148703   T   T   T
  0.7333333333333343  0.6666666666666643  0.2683755404570718   F   F   F
  0.9333409367364137  0.2666682766171099  0.6090908788531059   T   T   T
  0.9333333333333300  0.2666666666666657  0.2683755404570718   F   F   F
  0.7333334482530807  0.4666696726986284  0.6090857067198964   T   T   T
  0.7333327518177978  0.4666667978203192  0.7056053991413676   T   T   T
  0.9333333333333371  0.6666666666666643  0.2683755404570718   F   F   F
  0.9333333333333300  0.0666666666666700  0.2683755404570718   F   F   F
  0.9333333333333371  0.6666666666666643  0.1698579369981488   F   F   F
  0.5333313045912710  0.8666620788111573  0.6090910353591695   T   T   T
  0.5333351112060943  0.0666684940164274  0.7056059313658222   T   T   T
  0.5333333333333314  0.8666666666666671  0.1698579369981488   F   F   F
  0.3333333333333357  0.2666666666666657  0.1698579369981488   F   F   F
  0.3333333333333357  0.2666666666666657  0.2683755404570718   F   F   F
  0.3333280320903825  0.0666678510550220  0.6090893811382450   T   T   T
  0.3333317275949747  0.0666671539681057  0.7056069916089626   T   T   T
  0.3333333333333357  0.0666666666666700  0.1698579369981488   F   F   F
  0.3333333333333357  0.0666666666666700  0.2683755404570718   F   F   F
  0.1333326197792732  0.8666659034789856  0.6090937361998656   T   T   T
  0.1333333095257131  0.8666676493700226  0.7056068013996137   T   T   T
  0.1333333333333329  0.8666666666666671  0.1698579369981488   F   F   F
  0.1333333333333329  0.8666666666666671  0.2683755404570718   F   F   F
  0.1333343687456792  0.6666641578137434  0.6090927033729486   T   T   T
  0.1333323143127933  0.6666660611129345  0.7056069032459762   T   T   T
  0.3333370358349020  0.2666741403735924  0.7056098776592346   T   T   T
  0.1333333333333329  0.6666666666666643  0.1698579369981488   F   F   F
  0.1333493369364370  0.4666631331507358  0.6090863692544549   T   T   T
  0.1333337308010999  0.4666648962272832  0.7056064821134780   T   T   T
  0.1333333333333329  0.4666666666666686  0.1698579369981488   F   F   F
  0.1333333333333329  0.4666666666666686  0.2683755404570718   F   F   F
  0.1333479027206660  0.2666824641482043  0.6090767850417534   T   T   T
  0.1333359515120857  0.2666638609626726  0.7056058003217811   T   T   T
  0.1333333333333329  0.2666666666666657  0.1698579369981488   F   F   F
  0.1333333333333329  0.2666666666666657  0.2683755404570718   F   F   F
  0.1333357283567737  0.0666730232307939  0.6090886156240858   T   T   T
  0.1333322689402831  0.0666710452748334  0.7056058072924606   T   T   T
  0.1333333333333329  0.0666666666666700  0.1698579369981488   F   F   F
  0.1333333333333329  0.0666666666666700  0.2683755404570718   F   F   F
  0.1333333333333329  0.6666666666666643  0.2683755404570718   F   F   F
  0.3333497072122932  0.2666910452250338  0.6090485754366791   T   T   T
  0.3333333333333357  0.4666666666666686  0.2683755404570718   F   F   F
  0.3333333333333357  0.4666666666666686  0.1698579369981488   F   F   F
  0.5333333333333314  0.8666666666666671  0.2683755404570718   F   F   F
  0.5333163909548064  0.6666469028263935  0.6090637505295976   T   T   T
  0.5333384599981270  0.6666624883689319  0.7056051960621732   T   T   T
  0.5333333333333314  0.6666666666666643  0.1698579369981488   F   F   F
  0.5333333333333314  0.6666666666666643  0.2683755404570718   F   F   F
  0.5333554280368886  0.4666784788757473  0.6090948302740743   T   T   T
  0.5333263141304287  0.4666645747010514  0.7056113575818657   T   T   T
  0.5333333333333314  0.4666666666666686  0.1698579369981488   F   F   F
  0.5333333333333314  0.4666666666666686  0.2683755404570718   F   F   F
  0.5333199425598052  0.2666754847877759  0.6090756457961138   T   T   T
  0.5333316273230729  0.2666702472655837  0.7056047779217408   T   T   T
  0.5333333333333314  0.2666666666666657  0.1698579369981488   F   F   F
  0.5333333333333314  0.2666666666666657  0.2683755404570718   F   F   F
  0.5333352611788570  0.0666643153674963  0.6090929445035506   T   T   T
  0.9333330053821222  0.8666667367176376  0.7056067316708520   T   T   T
  0.5333333333333314  0.0666666666666700  0.1698579369981488   F   F   F
  0.5333333333333314  0.0666666666666700  0.2683755404570718   F   F   F
  0.3333323214155239  0.8666626803460907  0.6090930633251206   T   T   T
  0.3333327328061998  0.8666676022769016  0.7056067877322261   T   T   T
  0.3333333333333357  0.8666666666666671  0.1698579369981488   F   F   F
  0.3333333333333357  0.8666666666666671  0.2683755404570718   F   F   F
  0.3333331050351123  0.6666478185071838  0.6090833571715760   T   T   T
  0.3333335667196632  0.6666642677227356  0.7056078457798555   T   T   T
  0.3333333333333357  0.6666666666666643  0.1698579369981488   F   F   F
  0.3333333333333357  0.6666666666666643  0.2683755404570718   F   F   F
  0.3333358838139827  0.4666616665676345  0.6090375276331149   T   T   T
  0.3333364609970914  0.4666638767195502  0.7056113301092253   T   T   T
  0.5333357693676467  0.8666674563708527  0.7056066580588987   T   T   T
  0.9333350417017406  0.8666656915487292  0.6090925550719595   T   T   T
 
  0.00000000E+00  0.00000000E+00  0.00000000E+00
  0.00000000E+00  0.00000000E+00  0.00000000E+00
  0.00000000E+00  0.00000000E+00  0.00000000E+00
  0.00000000E+00  0.00000000E+00  0.00000000E+00
  0.00000000E+00  0.00000000E+00  0.00000000E+00
  0.00000000E+00  0.00000000E+00  0.00000000E+00
  0.00000000E+00  0.00000000E+00  0.00000000E+00
  0.00000000E+00  0.00000000E+00  0.00000000E+00
  0.00000000E+00  0.00000000E+00  0.00000000E+00
  0.00000000E+00  0.00000000E+00  0.00000000E+00
  0.00000000E+00  0.00000000E+00  0.00000000E+00
  0.00000000E+00  0.00000000E+00  0.00000000E+00
  0.00000000E+00  0.00000000E+00  0.00000000E+00
  0.00000000E+00  0.00000000E+00  0.00000000E+00
  0.00000000E+00  0.00000000E+00  0.00000000E+00
  0.00000000E+00  0.00000000E+00  0.00000000E+00
  0.00000000E+00  0.00000000E+00  0.00000000E+00
  0.00000000E+00  0.00000000E+00  0.00000000E+00
  0.00000000E+00  0.00000000E+00  0.00000000E+00
  0.00000000E+00  0.00000000E+00  0.00000000E+00
  0.00000000E+00  0.00000000E+00  0.00000000E+00
  0.00000000E+00  0.00000000E+00  0.00000000E+00
  0.00000000E+00  0.00000000E+00  0.00000000E+00
  0.00000000E+00  0.00000000E+00  0.00000000E+00
  0.00000000E+00  0.00000000E+00  0.00000000E+00
  0.00000000E+00  0.00000000E+00  0.00000000E+00
  0.00000000E+00  0.00000000E+00  0.00000000E+00
  0.00000000E+00  0.00000000E+00  0.00000000E+00
  0.00000000E+00  0.00000000E+00  0.00000000E+00
  0.00000000E+00  0.00000000E+00  0.00000000E+00
  0.00000000E+00  0.00000000E+00  0.00000000E+00
  0.00000000E+00  0.00000000E+00  0.00000000E+00
  0.00000000E+00  0.00000000E+00  0.00000000E+00
  0.00000000E+00  0.00000000E+00  0.00000000E+00
  0.00000000E+00  0.00000000E+00  0.00000000E+00
  0.00000000E+00  0.00000000E+00  0.00000000E+00
  0.00000000E+00  0.00000000E+00  0.00000000E+00
  0.00000000E+00  0.00000000E+00  0.00000000E+00
  0.00000000E+00  0.00000000E+00  0.00000000E+00
  0.00000000E+00  0.00000000E+00  0.00000000E+00
  0.00000000E+00  0.00000000E+00  0.00000000E+00
  0.00000000E+00  0.00000000E+00  0.00000000E+00
  0.00000000E+00  0.00000000E+00  0.00000000E+00
  0.00000000E+00  0.00000000E+00  0.00000000E+00
  0.00000000E+00  0.00000000E+00  0.00000000E+00
  0.00000000E+00  0.00000000E+00  0.00000000E+00
  0.00000000E+00  0.00000000E+00  0.00000000E+00
  0.00000000E+00  0.00000000E+00  0.00000000E+00
  0.00000000E+00  0.00000000E+00  0.00000000E+00
  0.00000000E+00  0.00000000E+00  0.00000000E+00
  0.00000000E+00  0.00000000E+00  0.00000000E+00
  0.00000000E+00  0.00000000E+00  0.00000000E+00
  0.00000000E+00  0.00000000E+00  0.00000000E+00
  0.00000000E+00  0.00000000E+00  0.00000000E+00
  0.00000000E+00  0.00000000E+00  0.00000000E+00
  0.00000000E+00  0.00000000E+00  0.00000000E+00
  0.00000000E+00  0.00000000E+00  0.00000000E+00
  0.00000000E+00  0.00000000E+00  0.00000000E+00
  0.00000000E+00  0.00000000E+00  0.00000000E+00
  0.00000000E+00  0.00000000E+00  0.00000000E+00
  0.00000000E+00  0.00000000E+00  0.00000000E+00
  0.00000000E+00  0.00000000E+00  0.00000000E+00
  0.00000000E+00  0.00000000E+00  0.00000000E+00
  0.00000000E+00  0.00000000E+00  0.00000000E+00
  0.00000000E+00  0.00000000E+00  0.00000000E+00
  0.00000000E+00  0.00000000E+00  0.00000000E+00
  0.00000000E+00  0.00000000E+00  0.00000000E+00
  0.00000000E+00  0.00000000E+00  0.00000000E+00
  0.00000000E+00  0.00000000E+00  0.00000000E+00
  0.00000000E+00  0.00000000E+00  0.00000000E+00
  0.00000000E+00  0.00000000E+00  0.00000000E+00
  0.00000000E+00  0.00000000E+00  0.00000000E+00
  0.00000000E+00  0.00000000E+00  0.00000000E+00
  0.00000000E+00  0.00000000E+00  0.00000000E+00
  0.00000000E+00  0.00000000E+00  0.00000000E+00
  0.00000000E+00  0.00000000E+00  0.00000000E+00
  0.00000000E+00  0.00000000E+00  0.00000000E+00
  0.00000000E+00  0.00000000E+00  0.00000000E+00
  0.00000000E+00  0.00000000E+00  0.00000000E+00
  0.00000000E+00  0.00000000E+00  0.00000000E+00
  0.00000000E+00  0.00000000E+00  0.00000000E+00
  0.00000000E+00  0.00000000E+00  0.00000000E+00
  0.00000000E+00  0.00000000E+00  0.00000000E+00
  0.00000000E+00  0.00000000E+00  0.00000000E+00
  0.00000000E+00  0.00000000E+00  0.00000000E+00
  0.00000000E+00  0.00000000E+00  0.00000000E+00
  0.00000000E+00  0.00000000E+00  0.00000000E+00
  0.00000000E+00  0.00000000E+00  0.00000000E+00
  0.00000000E+00  0.00000000E+00  0.00000000E+00
  0.00000000E+00  0.00000000E+00  0.00000000E+00
  0.00000000E+00  0.00000000E+00  0.00000000E+00
  0.00000000E+00  0.00000000E+00  0.00000000E+00
  0.00000000E+00  0.00000000E+00  0.00000000E+00
  0.00000000E+00  0.00000000E+00  0.00000000E+00
  0.00000000E+00  0.00000000E+00  0.00000000E+00
  0.00000000E+00  0.00000000E+00  0.00000000E+00
  0.00000000E+00  0.00000000E+00  0.00000000E+00
  0.00000000E+00  0.00000000E+00  0.00000000E+00
  0.00000000E+00  0.00000000E+00  0.00000000E+00
  0.00000000E+00  0.00000000E+00  0.00000000E+00
  0.00000000E+00  0.00000000E+00  0.00000000E+00
  0.00000000E+00  0.00000000E+00  0.00000000E+00
  0.00000000E+00  0.00000000E+00  0.00000000E+00
  0.00000000E+00  0.00000000E+00  0.00000000E+00
  0.00000000E+00  0.00000000E+00  0.00000000E+00
  0.00000000E+00  0.00000000E+00  0.00000000E+00
  0.00000000E+00  0.00000000E+00  0.00000000E+00
  0.00000000E+00  0.00000000E+00  0.00000000E+00
  0.00000000E+00  0.00000000E+00  0.00000000E+00
  0.00000000E+00  0.00000000E+00  0.00000000E+00
  0.00000000E+00  0.00000000E+00  0.00000000E+00
  0.00000000E+00  0.00000000E+00  0.00000000E+00
  0.00000000E+00  0.00000000E+00  0.00000000E+00
  0.00000000E+00  0.00000000E+00  0.00000000E+00
  0.00000000E+00  0.00000000E+00  0.00000000E+00
  0.00000000E+00  0.00000000E+00  0.00000000E+00
  0.00000000E+00  0.00000000E+00  0.00000000E+00
  0.00000000E+00  0.00000000E+00  0.00000000E+00
  0.00000000E+00  0.00000000E+00  0.00000000E+00
  0.00000000E+00  0.00000000E+00  0.00000000E+00
  0.00000000E+00  0.00000000E+00  0.00000000E+00
  0.00000000E+00  0.00000000E+00  0.00000000E+00
  0.00000000E+00  0.00000000E+00  0.00000000E+00
  0.00000000E+00  0.00000000E+00  0.00000000E+00
  0.00000000E+00  0.00000000E+00  0.00000000E+00
  0.00000000E+00  0.00000000E+00  0.00000000E+00
  0.00000000E+00  0.00000000E+00  0.00000000E+00
  0.00000000E+00  0.00000000E+00  0.00000000E+00
  0.00000000E+00  0.00000000E+00  0.00000000E+00
  0.00000000E+00  0.00000000E+00  0.00000000E+00
  0.00000000E+00  0.00000000E+00  0.00000000E+00
  0.00000000E+00  0.00000000E+00  0.00000000E+00
  0.00000000E+00  0.00000000E+00  0.00000000E+00
  0.00000000E+00  0.00000000E+00  0.00000000E+00
  0.00000000E+00  0.00000000E+00  0.00000000E+00
  0.00000000E+00  0.00000000E+00  0.00000000E+00
  0.00000000E+00  0.00000000E+00  0.00000000E+00
  0.00000000E+00  0.00000000E+00  0.00000000E+00
  0.00000000E+00  0.00000000E+00  0.00000000E+00
  0.00000000E+00  0.00000000E+00  0.00000000E+00
  0.00000000E+00  0.00000000E+00  0.00000000E+00
  0.00000000E+00  0.00000000E+00  0.00000000E+00
  0.00000000E+00  0.00000000E+00  0.00000000E+00
  0.00000000E+00  0.00000000E+00  0.00000000E+00
  0.00000000E+00  0.00000000E+00  0.00000000E+00
  0.00000000E+00  0.00000000E+00  0.00000000E+00
  0.00000000E+00  0.00000000E+00  0.00000000E+00
  0.00000000E+00  0.00000000E+00  0.00000000E+00
  0.00000000E+00  0.00000000E+00  0.00000000E+00
  0.00000000E+00  0.00000000E+00  0.00000000E+00
  0.00000000E+00  0.00000000E+00  0.00000000E+00
  0.00000000E+00  0.00000000E+00  0.00000000E+00
  0.00000000E+00  0.00000000E+00  0.00000000E+00
  0.00000000E+00  0.00000000E+00  0.00000000E+00
  0.00000000E+00  0.00000000E+00  0.00000000E+00
  0.00000000E+00  0.00000000E+00  0.00000000E+00
  0.00000000E+00  0.00000000E+00  0.00000000E+00
  0.00000000E+00  0.00000000E+00  0.00000000E+00
  0.00000000E+00  0.00000000E+00  0.00000000E+00
  0.00000000E+00  0.00000000E+00  0.00000000E+00
  0.00000000E+00  0.00000000E+00  0.00000000E+00
  0.00000000E+00  0.00000000E+00  0.00000000E+00
  0.00000000E+00  0.00000000E+00  0.00000000E+00
  0.00000000E+00  0.00000000E+00  0.00000000E+00
  0.00000000E+00  0.00000000E+00  0.00000000E+00
  0.00000000E+00  0.00000000E+00  0.00000000E+00
  0.00000000E+00  0.00000000E+00  0.00000000E+00
  0.00000000E+00  0.00000000E+00  0.00000000E+00
  0.00000000E+00  0.00000000E+00  0.00000000E+00
  0.00000000E+00  0.00000000E+00  0.00000000E+00
  0.00000000E+00  0.00000000E+00  0.00000000E+00
