 C Co  H Mo  S                          
   1.00000000000000     
     9.5709464550000014    0.0000000000000000    0.0000000000000000
    -6.3806280268000020   11.0515787236000005    0.0000000000000000
     0.0000000000000000    0.0000000000000000   34.8802625070458063
   C    Co   H    Mo   S 
    10     1    10    24    48
Direct
  0.8444573799091656  0.2049190837181576  0.4040520690806564
  0.8552795118600176  0.2380308041230964  0.4436292179118146
  0.8960323287013003  0.3118625143777871  0.3815743261538377
  0.9406551802864789  0.4114109321834966  0.4071528913624012
  0.9151417833858856  0.3659072035611146  0.4455501828903936
  0.4714743398729850  0.1658416610469364  0.4330614269723630
  0.5671318203223198  0.3647621948304653  0.4145310689575980
  0.5267474586852157  0.2861543675804337  0.4469922969795908
  0.5382953509523346  0.2934308109163668  0.3806718275281074
  0.4783277001164084  0.1704406364637559  0.3920731178817663
  0.7032274258399093  0.2810588647791338  0.4152164729022842
  0.9331526159550597  0.4180828421703963  0.4715738176948970
  0.5394813155070051  0.3130667075552107  0.4769409542481402
  0.5620540077223757  0.3272657463570548  0.3514172586545590
  0.6167192048537348  0.4621795374429626  0.4153294487779523
  0.4353643383223776  0.0859901539995584  0.4506525276834166
  0.8204962183039419  0.1769117605334969  0.4680111067467693
  0.7994372706268849  0.1141302616213403  0.3928275569276602
  0.8968109497838066  0.3161652958177721  0.3504764297170515
  0.9810580211777945  0.5041432923720670  0.3985740785488469
  0.4488770987151823  0.0953628746160298  0.3727352395812602
  0.5545788747481699  0.0795767999996883  0.2440272652640288
  0.5547462733466021  0.3296713699134037  0.2442365791902215
  0.4444810913440309  0.4163815521476278  0.7497785720057814
  0.5549184790577931  0.5799160386703345  0.2442323778569521
  0.4444816436823177  0.6663783734793475  0.7497783994092485
  0.5547942686671065  0.8297825781980449  0.2442175027488492
  0.4444783593275315  0.9163747815782596  0.7497791320433331
  0.8882690436235783  0.3296509464103448  0.2442507679195595
  0.7778272948784029  0.1663725644903366  0.7497883694150448
  0.7778296274923658  0.4163754324798664  0.7497884032278284
  0.8883773786099255  0.5801002667745976  0.2441977846038938
  0.7778291281572004  0.6663744433400159  0.7497888738050797
  0.8880307915854836  0.8297454236820415  0.2442408134876714
  0.7778280546687223  0.9163727340411212  0.7497889014510136
  0.1111414955975288  0.9163934638491569  0.7497925608952227
  0.8882347029686647  0.0796310522123182  0.2441550298498207
  0.2214054644913103  0.8298332705945121  0.2441878497764095
  0.4444766108250739  0.1663754512234747  0.7497791342975667
  0.2216768960791454  0.5799894824411121  0.2441789866634847
  0.1111448859228374  0.4163960150638990  0.7497911763021597
  0.2214660986011211  0.3295307248670620  0.2442022413135586
  0.2209867698590574  0.0795626912835875  0.2441226290824528
  0.1111428028940713  0.1663947796131787  0.7497918137469136
  0.1111441766380246  0.6663950993159438  0.7497919003144363
  0.7756737844928343  0.1615054378286319  0.2885406900418535
  0.8895360934098733  0.0838200666306264  0.7943522671018988
  0.7765682438295115  0.1624141228142432  0.1996211506531533
  0.8895564200467028  0.0838308104289751  0.7052434579423905
  0.2228626476350388  0.0838418831448377  0.7052427909705132
  0.1096281133137413  0.1623620819254102  0.1995970166518040
  0.7768639492386307  0.4127340775924978  0.2886638022609544
  0.8895380657647211  0.3338210209616752  0.7943513344024669
  0.1097556285420226  0.6624217184937152  0.1996402616839542
  0.5562348187202755  0.8338413509139280  0.7052365937573734
  0.8895575097524460  0.3338333959064532  0.7052433010716088
  0.2228960464235119  0.0838511044240530  0.7943497190348031
  0.1095512353655251  0.1621366421247911  0.2887358663305667
  0.7764038227285415  0.6623956439911567  0.2887560914068014
  0.8895375008214818  0.5838204281129943  0.7943522518422369
  0.7763169379095336  0.6623990676909133  0.1996683678379135
  0.8895593616562822  0.5838350689844840  0.7052433769520524
  0.7763088649711526  0.9123389989421238  0.2887527676128213
  0.8895359459754546  0.8338193771065935  0.7943529580410948
  0.7764833383237455  0.4123259432892143  0.1997190891149895
  0.4428512207943768  0.9120953807458473  0.1995758051431597
  0.4429272376180560  0.9124226672988521  0.2887052494173901
  0.2228684866781871  0.5838470781368131  0.7052419372003522
  0.2228993307345283  0.5838513870865131  0.7943493512336831
  0.1096128352005479  0.9123230439304941  0.2887357210728864
  0.2228979197187441  0.8338502599706822  0.7943498736568790
  0.1093704915400911  0.9121613786741374  0.1996089013633746
  0.2228643640914093  0.8338435609485872  0.7052426572840860
  0.1098536774131247  0.6624747896645262  0.2887249036292989
  0.7762944587796752  0.9122350459418304  0.1996410077670608
  0.4424184613142292  0.1615703261564371  0.2884487438789896
  0.5561969841441390  0.0838248142571838  0.7943429744901976
  0.4428352684469271  0.1624323846295482  0.1995927780566270
  0.5562314389763814  0.0838394768121102  0.7052367426524607
  0.4429701180906009  0.4124015731899942  0.2887362474636433
  0.5561971230384363  0.3338265064060049  0.7943425354834038
  0.4432045275373318  0.4123530592955763  0.1996941206765952
  0.5562331225959547  0.3338419243617139  0.7052367320238787
  0.2228663309091605  0.3338449944452764  0.7052421298525138
  0.1097860202183408  0.4123281233001737  0.1996736344768344
  0.4430846867736909  0.6624576456046039  0.2887337767973838
  0.5561979705911716  0.5838263418083799  0.7943431153142883
  0.4432016353914653  0.6624160904071078  0.1996594580241285
  0.5562362315217044  0.5838439018374124  0.7052365164077109
  0.2228976294846687  0.3338527873172182  0.7943488877304646
  0.1104392640680062  0.4125902393656321  0.2886312117550447
  0.5561974931786718  0.8338250811990661  0.7943434330558168
  0.8895580424862887  0.8338324788788420  0.7052436333419635
 
  0.00000000E+00  0.00000000E+00  0.00000000E+00
  0.00000000E+00  0.00000000E+00  0.00000000E+00
  0.00000000E+00  0.00000000E+00  0.00000000E+00
  0.00000000E+00  0.00000000E+00  0.00000000E+00
  0.00000000E+00  0.00000000E+00  0.00000000E+00
  0.00000000E+00  0.00000000E+00  0.00000000E+00
  0.00000000E+00  0.00000000E+00  0.00000000E+00
  0.00000000E+00  0.00000000E+00  0.00000000E+00
  0.00000000E+00  0.00000000E+00  0.00000000E+00
  0.00000000E+00  0.00000000E+00  0.00000000E+00
  0.00000000E+00  0.00000000E+00  0.00000000E+00
  0.00000000E+00  0.00000000E+00  0.00000000E+00
  0.00000000E+00  0.00000000E+00  0.00000000E+00
  0.00000000E+00  0.00000000E+00  0.00000000E+00
  0.00000000E+00  0.00000000E+00  0.00000000E+00
  0.00000000E+00  0.00000000E+00  0.00000000E+00
  0.00000000E+00  0.00000000E+00  0.00000000E+00
  0.00000000E+00  0.00000000E+00  0.00000000E+00
  0.00000000E+00  0.00000000E+00  0.00000000E+00
  0.00000000E+00  0.00000000E+00  0.00000000E+00
  0.00000000E+00  0.00000000E+00  0.00000000E+00
  0.00000000E+00  0.00000000E+00  0.00000000E+00
  0.00000000E+00  0.00000000E+00  0.00000000E+00
  0.00000000E+00  0.00000000E+00  0.00000000E+00
  0.00000000E+00  0.00000000E+00  0.00000000E+00
  0.00000000E+00  0.00000000E+00  0.00000000E+00
  0.00000000E+00  0.00000000E+00  0.00000000E+00
  0.00000000E+00  0.00000000E+00  0.00000000E+00
  0.00000000E+00  0.00000000E+00  0.00000000E+00
  0.00000000E+00  0.00000000E+00  0.00000000E+00
  0.00000000E+00  0.00000000E+00  0.00000000E+00
  0.00000000E+00  0.00000000E+00  0.00000000E+00
  0.00000000E+00  0.00000000E+00  0.00000000E+00
  0.00000000E+00  0.00000000E+00  0.00000000E+00
  0.00000000E+00  0.00000000E+00  0.00000000E+00
  0.00000000E+00  0.00000000E+00  0.00000000E+00
  0.00000000E+00  0.00000000E+00  0.00000000E+00
  0.00000000E+00  0.00000000E+00  0.00000000E+00
  0.00000000E+00  0.00000000E+00  0.00000000E+00
  0.00000000E+00  0.00000000E+00  0.00000000E+00
  0.00000000E+00  0.00000000E+00  0.00000000E+00
  0.00000000E+00  0.00000000E+00  0.00000000E+00
  0.00000000E+00  0.00000000E+00  0.00000000E+00
  0.00000000E+00  0.00000000E+00  0.00000000E+00
  0.00000000E+00  0.00000000E+00  0.00000000E+00
  0.00000000E+00  0.00000000E+00  0.00000000E+00
  0.00000000E+00  0.00000000E+00  0.00000000E+00
  0.00000000E+00  0.00000000E+00  0.00000000E+00
  0.00000000E+00  0.00000000E+00  0.00000000E+00
  0.00000000E+00  0.00000000E+00  0.00000000E+00
  0.00000000E+00  0.00000000E+00  0.00000000E+00
  0.00000000E+00  0.00000000E+00  0.00000000E+00
  0.00000000E+00  0.00000000E+00  0.00000000E+00
  0.00000000E+00  0.00000000E+00  0.00000000E+00
  0.00000000E+00  0.00000000E+00  0.00000000E+00
  0.00000000E+00  0.00000000E+00  0.00000000E+00
  0.00000000E+00  0.00000000E+00  0.00000000E+00
  0.00000000E+00  0.00000000E+00  0.00000000E+00
  0.00000000E+00  0.00000000E+00  0.00000000E+00
  0.00000000E+00  0.00000000E+00  0.00000000E+00
  0.00000000E+00  0.00000000E+00  0.00000000E+00
  0.00000000E+00  0.00000000E+00  0.00000000E+00
  0.00000000E+00  0.00000000E+00  0.00000000E+00
  0.00000000E+00  0.00000000E+00  0.00000000E+00
  0.00000000E+00  0.00000000E+00  0.00000000E+00
  0.00000000E+00  0.00000000E+00  0.00000000E+00
  0.00000000E+00  0.00000000E+00  0.00000000E+00
  0.00000000E+00  0.00000000E+00  0.00000000E+00
  0.00000000E+00  0.00000000E+00  0.00000000E+00
  0.00000000E+00  0.00000000E+00  0.00000000E+00
  0.00000000E+00  0.00000000E+00  0.00000000E+00
  0.00000000E+00  0.00000000E+00  0.00000000E+00
  0.00000000E+00  0.00000000E+00  0.00000000E+00
  0.00000000E+00  0.00000000E+00  0.00000000E+00
  0.00000000E+00  0.00000000E+00  0.00000000E+00
  0.00000000E+00  0.00000000E+00  0.00000000E+00
  0.00000000E+00  0.00000000E+00  0.00000000E+00
  0.00000000E+00  0.00000000E+00  0.00000000E+00
  0.00000000E+00  0.00000000E+00  0.00000000E+00
  0.00000000E+00  0.00000000E+00  0.00000000E+00
  0.00000000E+00  0.00000000E+00  0.00000000E+00
  0.00000000E+00  0.00000000E+00  0.00000000E+00
  0.00000000E+00  0.00000000E+00  0.00000000E+00
  0.00000000E+00  0.00000000E+00  0.00000000E+00
  0.00000000E+00  0.00000000E+00  0.00000000E+00
  0.00000000E+00  0.00000000E+00  0.00000000E+00
  0.00000000E+00  0.00000000E+00  0.00000000E+00
  0.00000000E+00  0.00000000E+00  0.00000000E+00
  0.00000000E+00  0.00000000E+00  0.00000000E+00
  0.00000000E+00  0.00000000E+00  0.00000000E+00
  0.00000000E+00  0.00000000E+00  0.00000000E+00
  0.00000000E+00  0.00000000E+00  0.00000000E+00
  0.00000000E+00  0.00000000E+00  0.00000000E+00
