 C Co  H Mo  S 
 1.0000000000000000
     9.5709464550000014    0.0000000000000000    0.0000000000000000
    -6.3806280268000020   11.0515787236000005    0.0000000000000000
     0.0000000000000000    0.0000000000000000   34.8802625070458063
  10   1  10  24  48
Cartesian
  6.8420823778022282  2.1221479339457501 13.9425264159288140
  6.6407886553436670  2.6034290989072204 15.2754755655782528
  6.7584818766631463  3.2400898405221668 13.0516023424530232
  6.5100460988306752  4.4132038416754753 13.8349038369242692
  6.4353130246927366  4.0194412424639285 15.2086338770501452
  3.3798727940251965  1.7900882186525124 14.6474740163676547
  3.1208541982763833  3.9973589581324238 13.9904852581752177
  3.1509838802300569  3.1216310452458931 15.1227887579934634
  3.3356456131176895  3.2074376476888280 12.8153764616169887
  3.4944073885014388  1.8430519452530647 13.2220117172174412
  4.9679018781609221  3.0323986033478065 14.1049298376967638
  6.2289066684324697  4.6783490669014736 16.0486889540983242
  3.0451261625824424  3.4180616370369981 16.1636781670619634
  3.3889429373738928  3.5808121137151732 11.7953837788006304
  2.9911427373979049  5.0763764132163800 14.0222316661099402
  3.4787121177549785  0.8990449763616635 15.2628194238420729
  6.6194817514761155  1.9961659130665108 16.1773317464367068
  7.0010081158996611  1.0853667227698467 13.6561706870431454
  6.8470807049191622  3.2007190866379123 11.9685377067116487
  6.3709853301885770  5.4218289237513488 13.4533973805638070
  3.6935920807063090  0.9990976964917316 12.5662277624018923
  4.7854750152839500  0.9209639422765983  8.7203894212259332
  3.1903180085839504  3.6838586231765982  8.7203894212259332
  1.5951572859421390  4.6048253090076150 26.1598745039230707
  1.5951610018839504  6.4467533040765987  8.7203894212259332
  0.0000002792421390  7.3677199899076147 26.1598745039230707
  0.0000039951839503  9.2096479849765984  8.7203894212259332
 -1.5951567274578611 10.1306146708076152 26.1598745039230707
  6.3806334935839502  3.6838586231765982  8.7203894212259332
  6.3806297776421390  1.8419306281076149 26.1598745039230707
  4.7854727709421390  4.6048253090076150 26.1598745039230707
  4.7854764868839510  6.4467533040765987  8.7203894212259332
  3.1903157642421394  7.3677199899076147 26.1598745039230707
  3.1903194801839505  9.2096479849765984  8.7203894212259332
  1.5951587575421391 10.1306146708076152 26.1598745039230707
 -4.7854722124578615 10.1306146708076152 26.1598745039230707
  7.9757905002839511  0.9209639422765983  8.7203894212259332
 -3.1903114898160498  9.2096479849765984  8.7203894212259332
  3.1903142926421393  1.8419306281076149 26.1598745039230707
 -1.5951544831160498  6.4467533040765987  8.7203894212259332
 -1.5951581990578612  4.6048253090076150 26.1598745039230707
  0.0000025235839503  3.6838586231765982  8.7203894212259332
  1.5951595302839503  0.9209639422765983  8.7203894212259332
 -0.0000011923578611  1.8419306281076149 26.1598745039230707
 -3.1903152057578610  7.3677199899076147 26.1598745039230707
  6.3806297776421390  1.8419306281076149 10.2852783946298043
  7.9757905002839511  0.9209639422765983 27.7247625070458064
  6.3806297776421390  1.8419306281076149  7.1554999999999991
  7.9757905002839511  0.9209639422765983 24.5949845851170643
  1.5951595302839503  0.9209639422765983 24.5949845851170643
 -0.0000011923578611  1.8419306281076149  7.1554999999999991
  4.7854727709421390  4.6048253090076150 10.2852783946298043
  6.3806334935839502  3.6838586231765982 27.7247625070458064
 -3.1903152057578610  7.3677199899076147  7.1554999999999991
  0.0000039951839503  9.2096479849765984 24.5949845851170643
  6.3806334935839502  3.6838586231765982 24.5949845851170643
  1.5951595302839503  0.9209639422765983 27.7247625070458064
 -0.0000011923578611  1.8419306281076149 10.2852783946298043
  3.1903157642421394  7.3677199899076147 10.2852783946298043
  4.7854764868839510  6.4467533040765987 27.7247625070458064
  3.1903157642421394  7.3677199899076147  7.1554999999999991
  4.7854764868839510  6.4467533040765987 24.5949845851170643
  1.5951587575421391 10.1306146708076152 10.2852783946298043
  3.1903194801839505  9.2096479849765984 27.7247625070458064
  4.7854727709421390  4.6048253090076150  7.1554999999999991
 -1.5951567274578611 10.1306146708076152  7.1554999999999991
 -1.5951567274578611 10.1306146708076152 10.2852783946298043
 -1.5951544831160498  6.4467533040765987 24.5949845851170643
 -1.5951544831160498  6.4467533040765987 27.7247625070458064
 -4.7854722124578615 10.1306146708076152 10.2852783946298043
 -3.1903114898160498  9.2096479849765984 27.7247625070458064
 -4.7854722124578615 10.1306146708076152  7.1554999999999991
 -3.1903114898160498  9.2096479849765984 24.5949845851170643
 -3.1903152057578610  7.3677199899076147 10.2852783946298043
  1.5951587575421391 10.1306146708076152  7.1554999999999991
  3.1903142926421393  1.8419306281076149 10.2852783946298043
  4.7854750152839500  0.9209639422765983 27.7247625070458064
  3.1903142926421393  1.8419306281076149  7.1554999999999991
  4.7854750152839500  0.9209639422765983 24.5949845851170643
  1.5951572859421390  4.6048253090076150 10.2852783946298043
  3.1903180085839504  3.6838586231765982 27.7247625070458064
  1.5951572859421390  4.6048253090076150  7.1554999999999991
  3.1903180085839504  3.6838586231765982 24.5949845851170643
  0.0000025235839503  3.6838586231765982 24.5949845851170643
 -1.5951581990578612  4.6048253090076150  7.1554999999999991
  0.0000002792421390  7.3677199899076147 10.2852783946298043
  1.5951610018839504  6.4467533040765987 27.7247625070458064
  0.0000002792421390  7.3677199899076147  7.1554999999999991
  1.5951610018839504  6.4467533040765987 24.5949845851170643
  0.0000025235839503  3.6838586231765982 27.7247625070458064
 -1.5951581990578612  4.6048253090076150 10.2852783946298043
  0.0000039951839503  9.2096479849765984 27.7247625070458064
  3.1903194801839505  9.2096479849765984 24.5949845851170643
