 C Cr  H Mo  S                          
   1.00000000000000     
    15.9000000000000004    0.0000000000000000    0.0000000000000000
    -7.9500000000000037   13.7698039201725724    0.0000000000000000
     0.0000000000000000    0.0000000000000000   32.3799999999999955
   C    Cr   H    Mo   S 
    10     1    10    50   100
Direct
  0.1070977565212381  0.1033666226626376  0.9670059532097137
  0.0891029143797384  0.0064171293005697  0.9634813582187046
  0.1380932967199986  0.1363275646991498  0.0080357811342029
  0.1402440144802846  0.0596720410484595  0.0306194585364217
  0.1098069941974422  0.9784449104425375  0.0027817474574714
  0.8460207549800005  0.8958701403459982  0.0023240929951679
  0.9151980791599230  0.9557653250764877  0.0666416384682602
  0.8878722351336856  0.8765923925983244  0.0379738911139502
  0.8893544802117062  0.0220620496859472  0.0484532804049408
  0.8468937266808165  0.9848568554005070  0.0091846647366643
  0.9957777556092672  0.0057758374591916  0.0121202602341923
  0.1057964037482872  0.9097036590711534  0.0098893140189122
  0.8951460558249681  0.8128746930351779  0.0429120271631233
  0.8191086788509844  0.8509786994433587  0.9747667429037866
  0.9480593192090367  0.9631389445020724  0.0968173465083137
  0.9022653662720128  0.0901646534510240  0.0619754400847968
  0.0630548810456361  0.9611775342188360  0.9359886721061629
  0.0942545622908508  0.1435297392978363  0.9429909265826260
  0.1550923596293144  0.2067523206181050  0.0203769268930632
  0.1627495652914919  0.0630699822826991  0.0625901964909174
  0.8236092575324190  0.0208059537536029  0.9871479517294257
  0.6000808317929344  0.5999412114710438  0.6571215262399466
  0.2005407744115950  0.7981625828993962  0.2156516364002665
  0.2000649271114770  0.5999264442613775  0.6571062673462468
  0.6005694300270945  0.7982142994518270  0.2155798270032188
  0.2005216285230550  0.5981780913298389  0.2156343028766208
  0.6000713587787320  0.7999256646376490  0.6571271087428815
  0.2005002744997438  0.3981671470470814  0.2155465967967669
  0.8004667235049865 -0.0018699457502458  0.2155399176365851
  0.2000650041658334  0.1999194695348589  0.6571353489701710
  0.8000703102506591 -0.0000731326805315  0.6571362558959427
  0.2004011375746531  0.1981213857064441  0.2154527201481506
  0.2000599334343823  0.7999275182266437  0.6571244952572151
  0.2000576168573898  0.3999120658640007  0.6571261385517266
  0.6004588980150597  0.5981442309004592  0.2156168299325738
  0.4005106843159097  0.5981868259136621  0.2155791189774316
  0.4000456663049065 -0.0000748389519174  0.6571170854548396
  0.6000633064956700  0.3999128482861849  0.6570951635842662
  0.4004332528796373  0.1981384063697210  0.2155110098669226
  0.6004277536288292  0.3981501935448505  0.2156122703061199
  0.4000539171908045  0.1999155462583141  0.6571138628326056
  0.4004569670040824  0.3981453848804209  0.2155333063747369
  0.6000642062952333  0.1999248490055963  0.6570934831338288
  0.4000446425374117  0.3999036606449979  0.6571211950712033
  0.6004618331531919  0.1981676195023067  0.2155650672473151
  0.4000576084014775  0.7999175901717276  0.6571062312383413
  0.4000552653084520  0.5999261684770391  0.6571046295831583
  0.6000822174049527 -0.0000785508642672  0.6571183980405774
  0.4005408377220340  0.7981957438965070  0.2156027754589503
  0.6004838405769574 -0.0018377153529403  0.2155462048115242
  0.4004808883713382 -0.0018348611897070  0.2155575502923028
  0.8004756317459590  0.1981477615297419  0.2155590942058695
  0.2000626734575420 -0.0000731050582406  0.6571315645274710
  0.2004258219550046 -0.0018891959815367  0.2155249469783607
  0.0004106701322481 -0.0019178831783836  0.2155059885748693
  0.8000715993180829  0.7999245854849266  0.6571353551184911
  0.0000670675876011 -0.0000736458997117  0.6571355093795803
  0.8004094221699163  0.7981108963832232  0.2156717920831941
  0.0005320301368433  0.1982228635564091  0.2156042578207315
  0.0000601982944123  0.1999168362490223  0.6571357604141885
  0.8000670617104000  0.5999277606472407  0.6571157679134081
  0.0004997101748632  0.3981692516638040  0.2156265356241808
  0.0000630042932162  0.3999016700083429  0.6571185675350933
  0.0004931744797904  0.5981129621529021  0.2157088543941243
  0.8000547398155808  0.3999160296929291  0.6570949282272818
  0.0000617407862336  0.5999422230671072  0.6571182969683287
  0.8004789704485983  0.5981564382913420  0.2156987524444855
  0.8004700071710467  0.3981474751478870  0.2156486594173654
  0.0000609846452622  0.7999252167990991  0.6571324275561296
  0.0005576889588384  0.7980392892485960  0.2158303162027903
  0.8000657581327189  0.1999171628050416  0.6571146791016544
  0.9337656775343215  0.0650367352561867  0.1673456602469920
  0.7334063154161753  0.2665755222007456  0.6088431199485361
  0.7333821237481964  0.2665923852948354  0.7053515459683047
  0.9333880129563139  0.6665800454646439  0.7053758622792278
  0.9334034456197724  0.6666162979008134  0.6088637646504557
  0.7338373746663479  0.2648978287593277  0.1673396659946341
  0.7337600026538481  0.2647273076500270  0.2638439208253753
  0.9338009224539299  0.4647125561578634  0.2639239307927453
  0.7334217711149952  0.0665804349600669  0.6088651013421695
  0.7333973392701972  0.0666027954791748  0.7053771588575309
  0.9333993404513998  0.0665902858173028  0.7053905706910261
  0.9337286738612104  0.8641502773852997  0.1675848364546184
  0.7338259811224355  0.0648230522880767  0.1672697812962274
  0.9334023244674868  0.0665858391411506  0.6088793834004821
  0.7338129075519326  0.0648035405199367  0.2637990948630136
  0.9338498256946720  0.2648816635750180  0.1673287669056953
  0.9333837100825310  0.2665897365759189  0.7053769826327784
  0.9338182193371706  0.8649600275825451  0.2639428380403121
  0.7337032057651683  0.4647218413297881  0.2639087825347237
  0.7338638167201678  0.4649083965108284  0.1674116843451462
  0.7339057694008853  0.8647758156610359  0.1672747496857405
  0.7333942597395665  0.8665868980525377  0.7053869876035491
  0.7338165262053401  0.8649257817721085  0.2638686956395503
  0.9338348694529065  0.4648841020881224  0.1674094918327994
  0.7334191571739022  0.8665969875124019  0.6088775837979138
  0.7334153398694812  0.6666149080863027  0.6088679481598350
  0.7333961054099253  0.6665712260262630  0.7053776222208185
  0.9333728605166911  0.4665750690049302  0.7053578422608304
  0.7338488747891728  0.6648048098530325  0.1673957509026037
  0.9334195685072719  0.4665982094293155  0.6088575053950128
  0.7337037966950671  0.6647916723648214  0.2639292208355233
  0.9334052116895692  0.2665652029825985  0.6088645750660023
  0.9337871300413444  0.2647777408078666  0.2638521381270251
  0.7334070037904450  0.4666074666528518  0.6088437873059867
  0.7333884074447955  0.4665673972547547  0.7053529502776972
  0.9337707749692069  0.6646643873707985  0.2640212058518522
  0.9338171915994448  0.0647805086011846  0.2638090765625882
  0.9338568675647237  0.6648159956533931  0.1674876984784099
  0.5334195040218657  0.8665899296042247  0.6088619552429467
  0.5334054013081404  0.0666075778640993  0.7053572512203979
  0.5338347401569310  0.8647959744967371  0.1673117080329712
  0.3338221662671143  0.2648482411494512  0.1672372374763174
  0.3336812423055521  0.2647425469502863  0.2637428771505357
  0.3333694185398419  0.0665818445663505  0.6088618921417952
  0.3334078636612221  0.0665988841811621  0.7053753487126806
  0.3337722556510853  0.0647605750132087  0.1672728166447885
  0.3337714564215069  0.0648531230920364  0.2637778558299196
  0.1333888393872746  0.8665986900283783  0.6088737225193639
  0.1334001701832444  0.8665905672662370  0.7053832237067833
  0.1336498788313286  0.8645784568099790  0.1673978210207768
  0.1340741621071043  0.8650078690817304  0.2639381611148566
  0.1333898648745110  0.6666065376384760  0.6088606820935913
  0.1333944236918992  0.6665813028710410  0.7053675208115137
  0.3334122988408430  0.2665865019665367  0.7053777329483460
  0.1337823254988501  0.6648101342732664  0.1674192931635678
  0.1333941983861421  0.4665664625052014  0.6088614985948027
  0.1333965743105841  0.4665987070872866  0.7053675171670399
  0.1338150798498376  0.4649095186766198  0.1673520554168312
  0.1338849612325465  0.4647897694287596  0.2638602979270891
  0.1333892445970780  0.2665684668464829  0.6088771560089504
  0.1334008869266189  0.2665925983117752  0.7053861584721624
  0.1337425091836699  0.2648828488845745  0.1672511215993235
  0.1339182926116833  0.2648222945555350  0.2637883390925755
  0.1333871408015407  0.0665863264811339  0.6088780059257962
  0.1334012314442795  0.0665871836090348  0.7053896640855977
  0.1336937154789891  0.0646625205496130  0.1671719917804535
  0.1337546761708513  0.0648387643700270  0.2637257427611535
  0.1339202192575372  0.6648357273009495  0.2639286421622211
  0.3333697085943191  0.2665712441202940  0.6088665590105928
  0.3338173796454040  0.4648057565837218  0.2638091337712302
  0.3338460231247428  0.4649043399739094  0.1672934152649263
  0.5339034283608980  0.8648938079497708  0.2638336740012516
  0.5334149463297635  0.6666046253386312  0.6088623556457425
  0.5333825415154198  0.6665786012592201  0.7053685345467459
  0.5338847692074837  0.6648714287563373  0.1673338694285492
  0.5338201756910862  0.6648776379738639  0.2638464992187969
  0.5333834623184143  0.4665985012341415  0.6088590948491638
  0.5334061997169298  0.4665733712993824  0.7053602441170432
  0.5338756898476242  0.4648843891487829  0.1673301828767899
  0.5336818456755302  0.4647719093890298  0.2638492858095231
  0.5333755739975357  0.2665762006236693  0.6088423560699742
  0.5334122961396460  0.2665892582499553  0.7053517046019233
  0.5338636341337243  0.2648973025926201  0.1673089329238512
  0.5336852717274602  0.2647452035513963  0.2638198444865880
  0.5333845081044301  0.0665579562868159  0.6088557367004627
  0.9334017893289098  0.8665887924233076  0.7053898526671672
  0.5338113394744075  0.0648383753009033  0.1673020677581082
  0.5338089169088626  0.0648146151794335  0.2638130656731357
  0.3333775606046347  0.8665915100350593  0.6088602395986135
  0.3334049186178838  0.8665920739754336  0.7053674238099651
  0.3337806429828445  0.8647621029802259  0.1673456380963968
  0.3339429524072161  0.8649138172768451  0.2638699601904785
  0.3333918079776547  0.6665934790049797  0.6088461091185184
  0.3333920884996647  0.6665916331815926  0.7053574471268490
  0.3338218180807793  0.6648672354977375  0.1673527998122624
  0.3339042578654357  0.6648639366231915  0.2638646662684300
  0.3333793043985863  0.4665697450065986  0.6088616827413830
  0.3334047612362402  0.4666010168049609  0.7053693848421588
  0.5333874551427554  0.8665887629812520  0.7053682322925630
  0.9334000800616857  0.8665999184077654  0.6088788509286742
 
  0.00000000E+00  0.00000000E+00  0.00000000E+00
  0.00000000E+00  0.00000000E+00  0.00000000E+00
  0.00000000E+00  0.00000000E+00  0.00000000E+00
  0.00000000E+00  0.00000000E+00  0.00000000E+00
  0.00000000E+00  0.00000000E+00  0.00000000E+00
  0.00000000E+00  0.00000000E+00  0.00000000E+00
  0.00000000E+00  0.00000000E+00  0.00000000E+00
  0.00000000E+00  0.00000000E+00  0.00000000E+00
  0.00000000E+00  0.00000000E+00  0.00000000E+00
  0.00000000E+00  0.00000000E+00  0.00000000E+00
  0.00000000E+00  0.00000000E+00  0.00000000E+00
  0.00000000E+00  0.00000000E+00  0.00000000E+00
  0.00000000E+00  0.00000000E+00  0.00000000E+00
  0.00000000E+00  0.00000000E+00  0.00000000E+00
  0.00000000E+00  0.00000000E+00  0.00000000E+00
  0.00000000E+00  0.00000000E+00  0.00000000E+00
  0.00000000E+00  0.00000000E+00  0.00000000E+00
  0.00000000E+00  0.00000000E+00  0.00000000E+00
  0.00000000E+00  0.00000000E+00  0.00000000E+00
  0.00000000E+00  0.00000000E+00  0.00000000E+00
  0.00000000E+00  0.00000000E+00  0.00000000E+00
  0.00000000E+00  0.00000000E+00  0.00000000E+00
  0.00000000E+00  0.00000000E+00  0.00000000E+00
  0.00000000E+00  0.00000000E+00  0.00000000E+00
  0.00000000E+00  0.00000000E+00  0.00000000E+00
  0.00000000E+00  0.00000000E+00  0.00000000E+00
  0.00000000E+00  0.00000000E+00  0.00000000E+00
  0.00000000E+00  0.00000000E+00  0.00000000E+00
  0.00000000E+00  0.00000000E+00  0.00000000E+00
  0.00000000E+00  0.00000000E+00  0.00000000E+00
  0.00000000E+00  0.00000000E+00  0.00000000E+00
  0.00000000E+00  0.00000000E+00  0.00000000E+00
  0.00000000E+00  0.00000000E+00  0.00000000E+00
  0.00000000E+00  0.00000000E+00  0.00000000E+00
  0.00000000E+00  0.00000000E+00  0.00000000E+00
  0.00000000E+00  0.00000000E+00  0.00000000E+00
  0.00000000E+00  0.00000000E+00  0.00000000E+00
  0.00000000E+00  0.00000000E+00  0.00000000E+00
  0.00000000E+00  0.00000000E+00  0.00000000E+00
  0.00000000E+00  0.00000000E+00  0.00000000E+00
  0.00000000E+00  0.00000000E+00  0.00000000E+00
  0.00000000E+00  0.00000000E+00  0.00000000E+00
  0.00000000E+00  0.00000000E+00  0.00000000E+00
  0.00000000E+00  0.00000000E+00  0.00000000E+00
  0.00000000E+00  0.00000000E+00  0.00000000E+00
  0.00000000E+00  0.00000000E+00  0.00000000E+00
  0.00000000E+00  0.00000000E+00  0.00000000E+00
  0.00000000E+00  0.00000000E+00  0.00000000E+00
  0.00000000E+00  0.00000000E+00  0.00000000E+00
  0.00000000E+00  0.00000000E+00  0.00000000E+00
  0.00000000E+00  0.00000000E+00  0.00000000E+00
  0.00000000E+00  0.00000000E+00  0.00000000E+00
  0.00000000E+00  0.00000000E+00  0.00000000E+00
  0.00000000E+00  0.00000000E+00  0.00000000E+00
  0.00000000E+00  0.00000000E+00  0.00000000E+00
  0.00000000E+00  0.00000000E+00  0.00000000E+00
  0.00000000E+00  0.00000000E+00  0.00000000E+00
  0.00000000E+00  0.00000000E+00  0.00000000E+00
  0.00000000E+00  0.00000000E+00  0.00000000E+00
  0.00000000E+00  0.00000000E+00  0.00000000E+00
  0.00000000E+00  0.00000000E+00  0.00000000E+00
  0.00000000E+00  0.00000000E+00  0.00000000E+00
  0.00000000E+00  0.00000000E+00  0.00000000E+00
  0.00000000E+00  0.00000000E+00  0.00000000E+00
  0.00000000E+00  0.00000000E+00  0.00000000E+00
  0.00000000E+00  0.00000000E+00  0.00000000E+00
  0.00000000E+00  0.00000000E+00  0.00000000E+00
  0.00000000E+00  0.00000000E+00  0.00000000E+00
  0.00000000E+00  0.00000000E+00  0.00000000E+00
  0.00000000E+00  0.00000000E+00  0.00000000E+00
  0.00000000E+00  0.00000000E+00  0.00000000E+00
  0.00000000E+00  0.00000000E+00  0.00000000E+00
  0.00000000E+00  0.00000000E+00  0.00000000E+00
  0.00000000E+00  0.00000000E+00  0.00000000E+00
  0.00000000E+00  0.00000000E+00  0.00000000E+00
  0.00000000E+00  0.00000000E+00  0.00000000E+00
  0.00000000E+00  0.00000000E+00  0.00000000E+00
  0.00000000E+00  0.00000000E+00  0.00000000E+00
  0.00000000E+00  0.00000000E+00  0.00000000E+00
  0.00000000E+00  0.00000000E+00  0.00000000E+00
  0.00000000E+00  0.00000000E+00  0.00000000E+00
  0.00000000E+00  0.00000000E+00  0.00000000E+00
  0.00000000E+00  0.00000000E+00  0.00000000E+00
  0.00000000E+00  0.00000000E+00  0.00000000E+00
  0.00000000E+00  0.00000000E+00  0.00000000E+00
  0.00000000E+00  0.00000000E+00  0.00000000E+00
  0.00000000E+00  0.00000000E+00  0.00000000E+00
  0.00000000E+00  0.00000000E+00  0.00000000E+00
  0.00000000E+00  0.00000000E+00  0.00000000E+00
  0.00000000E+00  0.00000000E+00  0.00000000E+00
  0.00000000E+00  0.00000000E+00  0.00000000E+00
  0.00000000E+00  0.00000000E+00  0.00000000E+00
  0.00000000E+00  0.00000000E+00  0.00000000E+00
  0.00000000E+00  0.00000000E+00  0.00000000E+00
  0.00000000E+00  0.00000000E+00  0.00000000E+00
  0.00000000E+00  0.00000000E+00  0.00000000E+00
  0.00000000E+00  0.00000000E+00  0.00000000E+00
  0.00000000E+00  0.00000000E+00  0.00000000E+00
  0.00000000E+00  0.00000000E+00  0.00000000E+00
  0.00000000E+00  0.00000000E+00  0.00000000E+00
  0.00000000E+00  0.00000000E+00  0.00000000E+00
  0.00000000E+00  0.00000000E+00  0.00000000E+00
  0.00000000E+00  0.00000000E+00  0.00000000E+00
  0.00000000E+00  0.00000000E+00  0.00000000E+00
  0.00000000E+00  0.00000000E+00  0.00000000E+00
  0.00000000E+00  0.00000000E+00  0.00000000E+00
  0.00000000E+00  0.00000000E+00  0.00000000E+00
  0.00000000E+00  0.00000000E+00  0.00000000E+00
  0.00000000E+00  0.00000000E+00  0.00000000E+00
  0.00000000E+00  0.00000000E+00  0.00000000E+00
  0.00000000E+00  0.00000000E+00  0.00000000E+00
  0.00000000E+00  0.00000000E+00  0.00000000E+00
  0.00000000E+00  0.00000000E+00  0.00000000E+00
  0.00000000E+00  0.00000000E+00  0.00000000E+00
  0.00000000E+00  0.00000000E+00  0.00000000E+00
  0.00000000E+00  0.00000000E+00  0.00000000E+00
  0.00000000E+00  0.00000000E+00  0.00000000E+00
  0.00000000E+00  0.00000000E+00  0.00000000E+00
  0.00000000E+00  0.00000000E+00  0.00000000E+00
  0.00000000E+00  0.00000000E+00  0.00000000E+00
  0.00000000E+00  0.00000000E+00  0.00000000E+00
  0.00000000E+00  0.00000000E+00  0.00000000E+00
  0.00000000E+00  0.00000000E+00  0.00000000E+00
  0.00000000E+00  0.00000000E+00  0.00000000E+00
  0.00000000E+00  0.00000000E+00  0.00000000E+00
  0.00000000E+00  0.00000000E+00  0.00000000E+00
  0.00000000E+00  0.00000000E+00  0.00000000E+00
  0.00000000E+00  0.00000000E+00  0.00000000E+00
  0.00000000E+00  0.00000000E+00  0.00000000E+00
  0.00000000E+00  0.00000000E+00  0.00000000E+00
  0.00000000E+00  0.00000000E+00  0.00000000E+00
  0.00000000E+00  0.00000000E+00  0.00000000E+00
  0.00000000E+00  0.00000000E+00  0.00000000E+00
  0.00000000E+00  0.00000000E+00  0.00000000E+00
  0.00000000E+00  0.00000000E+00  0.00000000E+00
  0.00000000E+00  0.00000000E+00  0.00000000E+00
  0.00000000E+00  0.00000000E+00  0.00000000E+00
  0.00000000E+00  0.00000000E+00  0.00000000E+00
  0.00000000E+00  0.00000000E+00  0.00000000E+00
  0.00000000E+00  0.00000000E+00  0.00000000E+00
  0.00000000E+00  0.00000000E+00  0.00000000E+00
  0.00000000E+00  0.00000000E+00  0.00000000E+00
  0.00000000E+00  0.00000000E+00  0.00000000E+00
  0.00000000E+00  0.00000000E+00  0.00000000E+00
  0.00000000E+00  0.00000000E+00  0.00000000E+00
  0.00000000E+00  0.00000000E+00  0.00000000E+00
  0.00000000E+00  0.00000000E+00  0.00000000E+00
  0.00000000E+00  0.00000000E+00  0.00000000E+00
  0.00000000E+00  0.00000000E+00  0.00000000E+00
  0.00000000E+00  0.00000000E+00  0.00000000E+00
  0.00000000E+00  0.00000000E+00  0.00000000E+00
  0.00000000E+00  0.00000000E+00  0.00000000E+00
  0.00000000E+00  0.00000000E+00  0.00000000E+00
  0.00000000E+00  0.00000000E+00  0.00000000E+00
  0.00000000E+00  0.00000000E+00  0.00000000E+00
  0.00000000E+00  0.00000000E+00  0.00000000E+00
  0.00000000E+00  0.00000000E+00  0.00000000E+00
  0.00000000E+00  0.00000000E+00  0.00000000E+00
  0.00000000E+00  0.00000000E+00  0.00000000E+00
  0.00000000E+00  0.00000000E+00  0.00000000E+00
  0.00000000E+00  0.00000000E+00  0.00000000E+00
  0.00000000E+00  0.00000000E+00  0.00000000E+00
  0.00000000E+00  0.00000000E+00  0.00000000E+00
  0.00000000E+00  0.00000000E+00  0.00000000E+00
  0.00000000E+00  0.00000000E+00  0.00000000E+00
  0.00000000E+00  0.00000000E+00  0.00000000E+00
  0.00000000E+00  0.00000000E+00  0.00000000E+00
  0.00000000E+00  0.00000000E+00  0.00000000E+00
  0.00000000E+00  0.00000000E+00  0.00000000E+00
  0.00000000E+00  0.00000000E+00  0.00000000E+00
  0.00000000E+00  0.00000000E+00  0.00000000E+00
