 C Cr  H Mo  S                          
   1.00000000000000     
    15.9000000000000004    0.0000000000000000    0.0000000000000000
    -7.9500000000000037   13.7698039201725724    0.0000000000000000
     0.0000000000000000    0.0000000000000000   32.3799999999999955
   C    Cr   H    Mo   S 
    10     1    10    50   100
Direct
  0.1452250858777604  0.0264955143979757  0.0204165914993904
  0.0994777318785152  0.0494014150468679  0.0527201583279472
  0.1505786237453308  0.0817911520988108  0.9847879179640250
  0.1079823546378345  0.1405428514367196  0.9951376338354300
  0.0760319479138925  0.1198553919180216  0.0375696019995710
  0.8764595835251303  0.8574218258563145  0.0128246446054247
  0.8675960800490632  0.9741250931958476  0.9727459388267641
  0.8513708758675835  0.9330812514279574  0.0136033639594822
  0.9015554723118647  0.9240750697287480  0.9472945236521909
  0.9072895660521827  0.8527545951793704  0.9716845979930430
  0.9993930326117195  0.9946637164640328  0.0003767308987621
  0.0415729579903499  0.1526741240894778  0.0551660718729337
  0.8227087237097147  0.9533083673675341  0.0398952570052117
  0.8713727360904097  0.8111123498227816  0.0385507868585251
  0.8567053783058090  0.0334242011279632  0.9629839177104477
  0.9240620040259461  0.9410046723330761  0.9151982243010804
  0.0823188093792403  0.0166691453302813  0.0833052508382803
  0.1677122769634964  0.9722227472585960  0.0220457720658030
  0.1810295397235672  0.0793357690126350  0.9550347121521117
  0.1035604995992746  0.1929882039447269  0.9750452409299950
  0.9338427000850058  0.8052605182984847  0.9611435761793501
  0.6000249144702609  0.6000280972595607  0.6573441108046083
  0.2000286800304737  0.8000125558607482  0.2189412611338004
  0.2000081155716527  0.6000053770754755  0.6573435269303307
  0.6000288319196779  0.8000132727133065  0.2188862552806309
  0.2000393504101392  0.6000198381555528  0.2189761995891175
  0.6000045440371059  0.8000029977658147  0.6573455789380860
  0.2000227610835294  0.4000077245962880  0.2189217499521725
  0.8000392541600923  0.0000162958262602  0.2188001410790091
  0.2000006105537986  0.1999982115495343  0.6573504175756165
  0.8000057548151278  0.0000028027988076  0.6573506266243349
  0.2000539647905340  0.2000592467005285  0.2188909299948161
  0.2000020555681185  0.8000041039431113  0.6573457779340219
  0.2000029727067859  0.4000009439878372  0.6573449456843687
  0.6000221614322530  0.6000216464750803  0.2189177218125122
  0.4000177328461594  0.6000164806054573  0.2189694374328494
  0.3999773888416411  0.0000002953016040  0.6573446406371007
  0.6000022606487659  0.4000018687333897  0.6573414676225297
  0.3999883113678887  0.2000114987683651  0.2189801691919251
  0.6000195023083403  0.4000157899796657  0.2189961663060167
  0.3999863617615176  0.1999951931138874  0.6573422751876052
  0.4000170227920532  0.4000155718799651  0.2189578775633945
  0.6000026543144605  0.2000053246094741  0.6573419468202643
  0.3999780877223665  0.3999807896233728  0.6573435904413484
  0.6000175628812603  0.2000185317606277  0.2190025947814432
  0.4000029931950983  0.8000003633804699  0.6573434123247057
  0.4000039934120949  0.6000050986870344  0.6573426734894181
  0.6000242829884652 -0.0000009277035554  0.6573446594389530
  0.4000167617510872  0.7999945324916173  0.2189770270182601
  0.6000204611817046  0.0000050588449325  0.2189305403055932
  0.4000180187087986  0.0000081815759376  0.2189746985501533
  0.8000361188412314  0.2000070972058855  0.2189225795649214
  0.2000002357696129  0.0000045509064470  0.6573507409627123
  0.2000415195094213  0.0000153254039101  0.2189209232800459
  0.0000473367870816  0.0000247108767023  0.2187589945898128
  0.8000050152931705  0.8000035992972431  0.6573506576678180
  0.0000024278393387  0.0000021368798072  0.6573377180684808
  0.8000306147788648  0.8000289068955317  0.2187950654436576
  0.0000631764220303  0.2000244446789417  0.2188302783681852
  0.0000003410287380  0.1999974023951325  0.6573504826491657
  0.8000086463827385  0.6000187226994563  0.6573428018901862
  0.0000422665504545  0.4000269352438905  0.2189314326639858
  0.0000053205150925  0.3999799996906616  0.6573445036275358
  0.0000346426565029  0.6000201843689854  0.2189386877639565
  0.7999992360014941  0.4000019446754634  0.6573420015595615
  0.0000051134758899  0.6000282795955507  0.6573446091355142
  0.8000321600437520  0.6000353381739005  0.2189251244819779
  0.8000198481038073  0.4000157109603441  0.2189856701281555
 -0.0000000071321129  0.8000049881464407  0.6573509939283367
  0.0000417947319301  0.8000282733238568  0.2188434346316936
  0.8000089430984859  0.1999934019109903  0.6573427489789504
  0.9333999912567069  0.0667586389084393  0.1704943635235859
  0.7333380027481886  0.2666666582212134  0.6090876956104069
  0.7333348898574106  0.2666689087178353  0.7055937451879326
  0.9333286396177124  0.6666721883694078  0.7056008766382633
  0.9333377808929831  0.6666848716109762  0.6090889069848506
  0.7332999161793804  0.2667007138456034  0.1707269399538881
  0.7334116294153074  0.2666526803212410  0.2672335570316609
  0.9334005483551409  0.4666974687828798  0.2672127439785411
  0.7333478188547389  0.0666654631887001  0.6090886032348258
  0.7333435505000612  0.0666729023657591  0.7056008821037458
  0.9333406556152267  0.0666620720327382  0.7055993699360295
  0.9333938912422354  0.8666299162513652  0.1705006020101830
  0.7332773124388818  0.0667313018270233  0.1706289031424125
  0.9333338918335766  0.0666695325342379  0.6090905685720740
  0.7334433053479941  0.0666113380047861  0.2671398702256942
  0.9333433141019581  0.2667535461418282  0.1706419639284914
  0.9333299124960083  0.2666595897846338  0.7056004207049459
  0.9333641937893831  0.8667602314112102  0.2670410551785354
  0.7334024568731750  0.4667624838488508  0.2672327330069595
  0.7333063101425052  0.4666138166577223  0.1707243702638650
  0.7332753310330601  0.8666471840996682  0.1705563314346614
  0.7333306054435742  0.8666657061409269  0.7056020130235912
  0.7334711081207554  0.8667367027257821  0.2670740678194104
  0.9333089505302693  0.4666634072219984  0.1707069256697805
  0.7333408954854225  0.8666712241656402  0.6090920725036203
  0.7333482525824409  0.6666847879344430  0.6090881037623217
  0.7333424057935074  0.6666720442872891  0.7056011632588903
  0.9333391242355318  0.4666712021912929  0.7055920996058997
  0.7332877758202805  0.6665536788933483  0.1706207162035721
  0.9333444264906839  0.4666740643386761  0.6090903533988052
  0.7334284719179121  0.6668359468463697  0.2671349448888814
  0.9333377938800136  0.2666557026341759  0.6090887887280259
  0.9334165248708538  0.2666134749735256  0.2671493688466763
  0.7333380531575241  0.4666754764786912  0.6090873200575603
  0.7333335388753804  0.4666700785627382  0.7055937918323817
  0.9333972377156491  0.6667932974709682  0.2671597301300169
  0.9333850606015495  0.0666296359179389  0.2670364530480053
  0.9333381491013933  0.6665956698133846  0.1706506181735241
  0.5333440427181044  0.8666712737119995  0.6090868307170787
  0.5333339544790456  0.0666655879104207  0.7055922659555519
  0.5332710890186850  0.8666642784531234  0.1706820545279281
  0.3334602811292667  0.2667355217184408  0.1706766961296491
  0.3332710728762004  0.2666692350550467  0.2672121901544662
  0.3333199405725266  0.0666662807951548  0.6090885423722544
  0.3333333316037560  0.0666759580711045  0.7056005898253361
  0.3334429604652324  0.0667255202222315  0.1706959635860824
  0.3332835381167862  0.0666410307764121  0.2672242071559034
  0.1333326798565592  0.8666718956077887  0.6090925824331116
  0.1333378491536032  0.8666674520316865  0.7056015609152517
  0.1334541313266475  0.8667120347094627  0.1706309291774175
  0.1332729660859555  0.8666737995701129  0.2671595418203505
  0.1333349289306052  0.6666753709705142  0.6090874320363977
  0.1333349889315026  0.6666705344651956  0.7055976215871688
  0.3333337604876813  0.2666623756987688  0.7056002532608716
  0.1333887252468009  0.6666603333312930  0.1707039371176477
  0.1333349091042066  0.4666630576658916  0.6090870846298004
  0.1333357973478806  0.4666666548472005  0.7055972824829907
  0.1333913120983711  0.4667396699665166  0.1706931587807416
  0.1333439125587090  0.4666263263062351  0.2672067409278002
  0.1333331508332759  0.2666632801987391  0.6090920401915488
  0.1333390105231318  0.2666740928429295  0.7056009259773294
  0.1334513811127934  0.2667503896418739  0.1705977646039815
  0.1332869980503655  0.2666109788585710  0.2671413836924041
  0.1333385551011347  0.0666700997737827  0.6090905297328791
  0.1333243789142449  0.0666637396653035  0.7055992751147780
  0.1335805255382166  0.0667850767899378  0.1706634284539582
  0.1332264030632499  0.0666419564426614  0.2671162695869680
  0.1333386922437470  0.6667000895152295  0.2672154320373492
  0.3333198171469203  0.2666560015320698  0.6090880044596961
  0.3333101377489685  0.4666470393620202  0.2672122670331502
  0.3333964779580583  0.4667106412563374  0.1706986144849997
  0.5334359447657455  0.8666745793163597  0.2671918884616194
  0.5333447703292108  0.6666759420870840  0.6090861423720046
  0.5333400488102171  0.6666703455844036  0.7055980131525579
  0.5332713323283726  0.6666113804054574  0.1706731297509308
  0.5334327329501317  0.6667472904372174  0.2671857546921900
  0.5333313939328478  0.4666747939699583  0.6090890124931039
  0.5333334497257326  0.4666723244427108  0.7055920067774281
  0.5333442632865778  0.4666125115481347  0.1707090984649038
  0.5333640881906196  0.4667477970776917  0.2672212325384277
  0.5333298291771730  0.2666667049510766  0.6090869941738559
  0.5333347874519719  0.2666705446089746  0.7055935054775883
  0.5333486692782765  0.2666798731368192  0.1707488331750942
  0.5333181595325750  0.2666740787535866  0.2672584958662473
  0.5333307627497865  0.0666596169936015  0.6090900875084164
  0.9333395466023122  0.8666800693369533  0.7055996690505075
  0.5333400133584728  0.0667348345374733  0.1707239539925470
  0.5333759960257044  0.0666362902397825  0.2672336942341397
  0.3333309544285137  0.8666713922239008  0.6090872417843777
  0.3333364986786531  0.8666714318611736  0.7055976877863350
  0.3333958611768483  0.8666929200308758  0.1707184285327339
  0.3333173664574464  0.8666603145084222  0.2672264405510460
  0.3333377638476743  0.6666704639273804  0.6090868641217457
  0.3333397484014969  0.6666699828974881  0.7055954406162581
  0.3333540646939315  0.6666782212823509  0.1707230873352139
  0.3333671262563730  0.6666732822456843  0.2672458880844477
  0.3333315229838244  0.4666628731098078  0.6090861262775464
  0.3333374318903923  0.4666677313487124  0.7055970388734150
  0.5333400496356304  0.8666706685916375  0.7055981902826006
  0.9333337205309252  0.8666657567555789  0.6090907544006936
 
  0.00000000E+00  0.00000000E+00  0.00000000E+00
  0.00000000E+00  0.00000000E+00  0.00000000E+00
  0.00000000E+00  0.00000000E+00  0.00000000E+00
  0.00000000E+00  0.00000000E+00  0.00000000E+00
  0.00000000E+00  0.00000000E+00  0.00000000E+00
  0.00000000E+00  0.00000000E+00  0.00000000E+00
  0.00000000E+00  0.00000000E+00  0.00000000E+00
  0.00000000E+00  0.00000000E+00  0.00000000E+00
  0.00000000E+00  0.00000000E+00  0.00000000E+00
  0.00000000E+00  0.00000000E+00  0.00000000E+00
  0.00000000E+00  0.00000000E+00  0.00000000E+00
  0.00000000E+00  0.00000000E+00  0.00000000E+00
  0.00000000E+00  0.00000000E+00  0.00000000E+00
  0.00000000E+00  0.00000000E+00  0.00000000E+00
  0.00000000E+00  0.00000000E+00  0.00000000E+00
  0.00000000E+00  0.00000000E+00  0.00000000E+00
  0.00000000E+00  0.00000000E+00  0.00000000E+00
  0.00000000E+00  0.00000000E+00  0.00000000E+00
  0.00000000E+00  0.00000000E+00  0.00000000E+00
  0.00000000E+00  0.00000000E+00  0.00000000E+00
  0.00000000E+00  0.00000000E+00  0.00000000E+00
  0.00000000E+00  0.00000000E+00  0.00000000E+00
  0.00000000E+00  0.00000000E+00  0.00000000E+00
  0.00000000E+00  0.00000000E+00  0.00000000E+00
  0.00000000E+00  0.00000000E+00  0.00000000E+00
  0.00000000E+00  0.00000000E+00  0.00000000E+00
  0.00000000E+00  0.00000000E+00  0.00000000E+00
  0.00000000E+00  0.00000000E+00  0.00000000E+00
  0.00000000E+00  0.00000000E+00  0.00000000E+00
  0.00000000E+00  0.00000000E+00  0.00000000E+00
  0.00000000E+00  0.00000000E+00  0.00000000E+00
  0.00000000E+00  0.00000000E+00  0.00000000E+00
  0.00000000E+00  0.00000000E+00  0.00000000E+00
  0.00000000E+00  0.00000000E+00  0.00000000E+00
  0.00000000E+00  0.00000000E+00  0.00000000E+00
  0.00000000E+00  0.00000000E+00  0.00000000E+00
  0.00000000E+00  0.00000000E+00  0.00000000E+00
  0.00000000E+00  0.00000000E+00  0.00000000E+00
  0.00000000E+00  0.00000000E+00  0.00000000E+00
  0.00000000E+00  0.00000000E+00  0.00000000E+00
  0.00000000E+00  0.00000000E+00  0.00000000E+00
  0.00000000E+00  0.00000000E+00  0.00000000E+00
  0.00000000E+00  0.00000000E+00  0.00000000E+00
  0.00000000E+00  0.00000000E+00  0.00000000E+00
  0.00000000E+00  0.00000000E+00  0.00000000E+00
  0.00000000E+00  0.00000000E+00  0.00000000E+00
  0.00000000E+00  0.00000000E+00  0.00000000E+00
  0.00000000E+00  0.00000000E+00  0.00000000E+00
  0.00000000E+00  0.00000000E+00  0.00000000E+00
  0.00000000E+00  0.00000000E+00  0.00000000E+00
  0.00000000E+00  0.00000000E+00  0.00000000E+00
  0.00000000E+00  0.00000000E+00  0.00000000E+00
  0.00000000E+00  0.00000000E+00  0.00000000E+00
  0.00000000E+00  0.00000000E+00  0.00000000E+00
  0.00000000E+00  0.00000000E+00  0.00000000E+00
  0.00000000E+00  0.00000000E+00  0.00000000E+00
  0.00000000E+00  0.00000000E+00  0.00000000E+00
  0.00000000E+00  0.00000000E+00  0.00000000E+00
  0.00000000E+00  0.00000000E+00  0.00000000E+00
  0.00000000E+00  0.00000000E+00  0.00000000E+00
  0.00000000E+00  0.00000000E+00  0.00000000E+00
  0.00000000E+00  0.00000000E+00  0.00000000E+00
  0.00000000E+00  0.00000000E+00  0.00000000E+00
  0.00000000E+00  0.00000000E+00  0.00000000E+00
  0.00000000E+00  0.00000000E+00  0.00000000E+00
  0.00000000E+00  0.00000000E+00  0.00000000E+00
  0.00000000E+00  0.00000000E+00  0.00000000E+00
  0.00000000E+00  0.00000000E+00  0.00000000E+00
  0.00000000E+00  0.00000000E+00  0.00000000E+00
  0.00000000E+00  0.00000000E+00  0.00000000E+00
  0.00000000E+00  0.00000000E+00  0.00000000E+00
  0.00000000E+00  0.00000000E+00  0.00000000E+00
  0.00000000E+00  0.00000000E+00  0.00000000E+00
  0.00000000E+00  0.00000000E+00  0.00000000E+00
  0.00000000E+00  0.00000000E+00  0.00000000E+00
  0.00000000E+00  0.00000000E+00  0.00000000E+00
  0.00000000E+00  0.00000000E+00  0.00000000E+00
  0.00000000E+00  0.00000000E+00  0.00000000E+00
  0.00000000E+00  0.00000000E+00  0.00000000E+00
  0.00000000E+00  0.00000000E+00  0.00000000E+00
  0.00000000E+00  0.00000000E+00  0.00000000E+00
  0.00000000E+00  0.00000000E+00  0.00000000E+00
  0.00000000E+00  0.00000000E+00  0.00000000E+00
  0.00000000E+00  0.00000000E+00  0.00000000E+00
  0.00000000E+00  0.00000000E+00  0.00000000E+00
  0.00000000E+00  0.00000000E+00  0.00000000E+00
  0.00000000E+00  0.00000000E+00  0.00000000E+00
  0.00000000E+00  0.00000000E+00  0.00000000E+00
  0.00000000E+00  0.00000000E+00  0.00000000E+00
  0.00000000E+00  0.00000000E+00  0.00000000E+00
  0.00000000E+00  0.00000000E+00  0.00000000E+00
  0.00000000E+00  0.00000000E+00  0.00000000E+00
  0.00000000E+00  0.00000000E+00  0.00000000E+00
  0.00000000E+00  0.00000000E+00  0.00000000E+00
  0.00000000E+00  0.00000000E+00  0.00000000E+00
  0.00000000E+00  0.00000000E+00  0.00000000E+00
  0.00000000E+00  0.00000000E+00  0.00000000E+00
  0.00000000E+00  0.00000000E+00  0.00000000E+00
  0.00000000E+00  0.00000000E+00  0.00000000E+00
  0.00000000E+00  0.00000000E+00  0.00000000E+00
  0.00000000E+00  0.00000000E+00  0.00000000E+00
  0.00000000E+00  0.00000000E+00  0.00000000E+00
  0.00000000E+00  0.00000000E+00  0.00000000E+00
  0.00000000E+00  0.00000000E+00  0.00000000E+00
  0.00000000E+00  0.00000000E+00  0.00000000E+00
  0.00000000E+00  0.00000000E+00  0.00000000E+00
  0.00000000E+00  0.00000000E+00  0.00000000E+00
  0.00000000E+00  0.00000000E+00  0.00000000E+00
  0.00000000E+00  0.00000000E+00  0.00000000E+00
  0.00000000E+00  0.00000000E+00  0.00000000E+00
  0.00000000E+00  0.00000000E+00  0.00000000E+00
  0.00000000E+00  0.00000000E+00  0.00000000E+00
  0.00000000E+00  0.00000000E+00  0.00000000E+00
  0.00000000E+00  0.00000000E+00  0.00000000E+00
  0.00000000E+00  0.00000000E+00  0.00000000E+00
  0.00000000E+00  0.00000000E+00  0.00000000E+00
  0.00000000E+00  0.00000000E+00  0.00000000E+00
  0.00000000E+00  0.00000000E+00  0.00000000E+00
  0.00000000E+00  0.00000000E+00  0.00000000E+00
  0.00000000E+00  0.00000000E+00  0.00000000E+00
  0.00000000E+00  0.00000000E+00  0.00000000E+00
  0.00000000E+00  0.00000000E+00  0.00000000E+00
  0.00000000E+00  0.00000000E+00  0.00000000E+00
  0.00000000E+00  0.00000000E+00  0.00000000E+00
  0.00000000E+00  0.00000000E+00  0.00000000E+00
  0.00000000E+00  0.00000000E+00  0.00000000E+00
  0.00000000E+00  0.00000000E+00  0.00000000E+00
  0.00000000E+00  0.00000000E+00  0.00000000E+00
  0.00000000E+00  0.00000000E+00  0.00000000E+00
  0.00000000E+00  0.00000000E+00  0.00000000E+00
  0.00000000E+00  0.00000000E+00  0.00000000E+00
  0.00000000E+00  0.00000000E+00  0.00000000E+00
  0.00000000E+00  0.00000000E+00  0.00000000E+00
  0.00000000E+00  0.00000000E+00  0.00000000E+00
  0.00000000E+00  0.00000000E+00  0.00000000E+00
  0.00000000E+00  0.00000000E+00  0.00000000E+00
  0.00000000E+00  0.00000000E+00  0.00000000E+00
  0.00000000E+00  0.00000000E+00  0.00000000E+00
  0.00000000E+00  0.00000000E+00  0.00000000E+00
  0.00000000E+00  0.00000000E+00  0.00000000E+00
  0.00000000E+00  0.00000000E+00  0.00000000E+00
  0.00000000E+00  0.00000000E+00  0.00000000E+00
  0.00000000E+00  0.00000000E+00  0.00000000E+00
  0.00000000E+00  0.00000000E+00  0.00000000E+00
  0.00000000E+00  0.00000000E+00  0.00000000E+00
  0.00000000E+00  0.00000000E+00  0.00000000E+00
  0.00000000E+00  0.00000000E+00  0.00000000E+00
  0.00000000E+00  0.00000000E+00  0.00000000E+00
  0.00000000E+00  0.00000000E+00  0.00000000E+00
  0.00000000E+00  0.00000000E+00  0.00000000E+00
  0.00000000E+00  0.00000000E+00  0.00000000E+00
  0.00000000E+00  0.00000000E+00  0.00000000E+00
  0.00000000E+00  0.00000000E+00  0.00000000E+00
  0.00000000E+00  0.00000000E+00  0.00000000E+00
  0.00000000E+00  0.00000000E+00  0.00000000E+00
  0.00000000E+00  0.00000000E+00  0.00000000E+00
  0.00000000E+00  0.00000000E+00  0.00000000E+00
  0.00000000E+00  0.00000000E+00  0.00000000E+00
  0.00000000E+00  0.00000000E+00  0.00000000E+00
  0.00000000E+00  0.00000000E+00  0.00000000E+00
  0.00000000E+00  0.00000000E+00  0.00000000E+00
  0.00000000E+00  0.00000000E+00  0.00000000E+00
  0.00000000E+00  0.00000000E+00  0.00000000E+00
  0.00000000E+00  0.00000000E+00  0.00000000E+00
  0.00000000E+00  0.00000000E+00  0.00000000E+00
  0.00000000E+00  0.00000000E+00  0.00000000E+00
  0.00000000E+00  0.00000000E+00  0.00000000E+00
  0.00000000E+00  0.00000000E+00  0.00000000E+00
  0.00000000E+00  0.00000000E+00  0.00000000E+00
  0.00000000E+00  0.00000000E+00  0.00000000E+00
  0.00000000E+00  0.00000000E+00  0.00000000E+00
