 C Cr  H Mo  S                          
   1.00000000000000     
    15.9000000000000004    0.0000000000000000    0.0000000000000000
    -7.9500000000000037   13.7698039201725724    0.0000000000000000
     0.0000000000000000    0.0000000000000000   32.3799999999999955
   C    Cr   H    Mo   S 
    10     1    10    50   100
Selective dynamics
Direct
  0.3874308793538458  0.3978806781719815  0.5008106141936253   T   T   F
  0.3399838253741364  0.4309928413872430  0.4735641273660036   T   T   F
  0.4883410876561576  0.4684913642281641  0.5016882212616309   T   T   F
  0.5040713481830542  0.5470139970004773  0.4746845725903199   T   T   F
  0.4112412572021689  0.5231856917843927  0.4571406894392211   T   T   F
  0.3930252619108693  0.3073172093461385  0.3951054476387981   T   T   F
  0.5340824689784663  0.4537103433319319  0.3821648556365531   T   T   F
  0.4311083164590761  0.4002185408578410  0.3747903715214491   T   T   F
  0.5590091598103903  0.3945973089165428  0.4064623645858845   T   T   F
  0.4728993935348222  0.3049318723633545  0.4145969978226276   T   T   F
  0.4521797182324307  0.4212346115004451  0.4386944040935532   T   T   F
  0.3974752511001634  0.5677281806915104  0.4358197565475592   T   T   F
  0.3900154863461879  0.4243882195844621  0.3562957256309005   T   T   F
  0.3178671430091378  0.2488321206726107  0.3949175817262685   T   T   F
  0.5840074005734789  0.5271140403075349  0.3716292161012120   T   T   F
  0.6308493731022836  0.4165224202257714  0.4186523591169333   T   T   F
  0.2633703990368578  0.3913012932919724  0.4654504102211163   T   T   F
  0.3534410211037614  0.3282235604272487  0.5166621482056399   T   T   F
  0.5434737284267166  0.4630832074855956  0.5194566092242638   T   T   F
  0.5728152398649371  0.6133298058884350  0.4695419451317946   T   T   F
  0.4682819871153646  0.2459955657456732  0.4333412486630479   T   T   F
  0.5999673922441873  0.5999625626221673  0.6573502161828273   T   T   F
  0.2000000000000028  0.7999999999999972  0.2191167387276067   F   F   F
  0.2000283398891009  0.6000047529162713  0.6573502161828273   T   T   F
  0.6000000000000014  0.7999999999999972  0.2191167387276067   F   F   F
  0.2000000000000028  0.6000000000000014  0.2191167387276067   F   F   F
  0.5999992346198045  0.7999695061232523  0.6573502161828273   T   T   F
  0.2000000000000028  0.3999999999999986  0.2191167387276067   F   F   F
  0.7999999999999972  0.0000000000000000  0.2191167387276067   F   F   F
  0.1999837328426271  0.1999975511451397  0.6573502161828273   T   T   F
  0.7999984735721458 -0.0000062835199644  0.6573502161828273   T   T   F
  0.2000000000000028  0.2000000000000028  0.2191167387276067   F   F   F
  0.1999971258134214  0.8000055302015409  0.6573502161828273   T   T   F
  0.2000633419844097  0.4000132146177013  0.6573502161828273   T   T   F
  0.6000000000000014  0.6000000000000014  0.2191167387276067   F   F   F
  0.3999999999999986  0.6000000000000014  0.2191167387276067   F   F   F
  0.3999821700114768 -0.0000074816983966  0.6573502161828273   T   T   F
  0.5999742894130043  0.4000224651262986  0.6573502161828273   T   T   F
  0.3999999999999986  0.2000000000000028  0.2191167387276067   F   F   F
  0.6000000000000014  0.3999999999999986  0.2191167387276067   F   F   F
  0.3999671667224579  0.1999852089300826  0.6573502161828273   T   T   F
  0.3999999999999986  0.3999999999999986  0.2191167387276067   F   F   F
  0.6000246531493600  0.2000060164231512  0.6573502161828273   T   T   F
  0.4000420535307244  0.4000427258277253  0.6573502161828273   T   T   F
  0.6000000000000014  0.2000000000000028  0.2191167387276067   F   F   F
  0.3999986357269998  0.7999753590214655  0.6573502161828273   T   T   F
  0.4000104937526270  0.5999570798791255  0.6573502161828273   T   T   F
  0.6000205748603971 -0.0000201486819849  0.6573502161828273   T   T   F
  0.3999999999999986  0.7999999999999972  0.2191167387276067   F   F   F
  0.6000000000000014  0.0000000000000000  0.2191167387276067   F   F   F
  0.3999999999999986  0.0000000000000000  0.2191167387276067   F   F   F
  0.7999999999999972  0.2000000000000028  0.2191167387276067   F   F   F
  0.1999996521016967  0.0000087684148125  0.6573502161828273   T   T   F
  0.2000000000000028  0.0000000000000000  0.2191167387276067   F   F   F
  0.0000000000000000  0.0000000000000000  0.2191167387276067   F   F   F
  0.7999969919911124  0.8000122344471392  0.6573502161828273   T   T   F
 -0.0000133459688179 -0.0000020499529266  0.6573502161828273   T   T   F
  0.7999999999999972  0.7999999999999972  0.2191167387276067   F   F   F
  0.0000000000000000  0.2000000000000028  0.2191167387276067   F   F   F
  0.0000079640316744  0.2000009218462598  0.6573502161828273   T   T   F
  0.8000068892310740  0.6000340529386976  0.6573502161828273   T   T   F
  0.0000000000000000  0.3999999999999986  0.2191167387276067   F   F   F
  0.0000289478547256  0.3999763856841707  0.6573502161828273   T   T   F
  0.0000000000000000  0.6000000000000014  0.2191167387276067   F   F   F
  0.7999876477691739  0.3999783687001777  0.6573502161828273   T   T   F
  0.0000021940459215  0.6000259648719756  0.6573502161828273   T   T   F
  0.7999999999999972  0.6000000000000014  0.2191167387276067   F   F   F
  0.7999999999999972  0.3999999999999986  0.2191167387276067   F   F   F
 -0.0000041225251424  0.8000083261163802  0.6573502161828273   T   T   F
  0.0000000000000000  0.7999999999999972  0.2191167387276067   F   F   F
  0.8000104217971344  0.1999819229633492  0.6573502161828273   T   T   F
  0.9333333333333300  0.0666666666666700  0.1698579369981488   F   F   F
  0.7333492117756952  0.2666510063414073  0.6080914144533693   T   T   F
  0.7333436991820923  0.2666566060925409  0.7066090179122924   T   T   F
  0.9333279287136652  0.6666830550696674  0.7066090179122924   T   T   F
  0.9333396669401361  0.6666910247385255  0.6080914144533693   T   T   F
  0.7333333333333343  0.2666666666666657  0.1698579369981488   F   F   F
  0.7333333333333343  0.2666666666666657  0.2683755404570718   F   F   F
  0.9333333333333371  0.4666666666666686  0.2683755404570718   F   F   F
  0.7333441713455715  0.0666494943342238  0.6080914144533693   T   T   F
  0.7333467061659905  0.0666574141899040  0.7066090179122924   T   T   F
  0.9333284905529033  0.0666706440911491  0.7066090179122924   T   T   F
  0.9333333333333371  0.8666666666666671  0.1698579369981488   F   F   F
  0.7333333333333343  0.0666666666666700  0.1698579369981488   F   F   F
  0.9333190191231440  0.0666735292607144  0.6080914144533693   T   T   F
  0.7333333333333343  0.0666666666666700  0.2683755404570718   F   F   F
  0.9333333333333300  0.2666666666666657  0.1698579369981488   F   F   F
  0.9333357515038021  0.2666448474638931  0.7066090179122924   T   T   F
  0.9333333333333371  0.8666666666666671  0.2683755404570718   F   F   F
  0.7333333333333343  0.4666666666666686  0.2683755404570718   F   F   F
  0.7333333333333343  0.4666666666666686  0.1698579369981488   F   F   F
  0.7333333333333343  0.8666666666666671  0.1698579369981488   F   F   F
  0.7333440669314749  0.8666699838761500  0.7066090179122924   T   T   F
  0.7333333333333343  0.8666666666666671  0.2683755404570718   F   F   F
  0.9333333333333371  0.4666666666666686  0.1698579369981488   F   F   F
  0.7333027442527260  0.8666429840166187  0.6080914144533693   T   T   F
  0.7332856041022279  0.6666499651088503  0.6080914144533693   T   T   F
  0.7332983716230289  0.6666681503007514  0.7066090179122924   T   T   F
  0.9333352866845173  0.4666599794722539  0.7066090179122924   T   T   F
  0.7333333333333343  0.6666666666666643  0.1698579369981488   F   F   F
  0.9333543510172315  0.4666636591292598  0.6080914144533693   T   T   F
  0.7333333333333343  0.6666666666666643  0.2683755404570718   F   F   F
  0.9333428524831752  0.2666505082240302  0.6080914144533693   T   T   F
  0.9333333333333300  0.2666666666666657  0.2683755404570718   F   F   F
  0.7333244283529894  0.4667122314290080  0.6080914144533693   T   T   F
  0.7333162717054469  0.4666721857268571  0.7066090179122924   T   T   F
  0.9333333333333371  0.6666666666666643  0.2683755404570718   F   F   F
  0.9333333333333300  0.0666666666666700  0.2683755404570718   F   F   F
  0.9333333333333371  0.6666666666666643  0.1698579369981488   F   F   F
  0.5333317923847390  0.8666183386194456  0.6080914144533693   T   T   F
  0.5333400853092580  0.0666648961991780  0.7066090179122924   T   T   F
  0.5333333333333314  0.8666666666666671  0.1698579369981488   F   F   F
  0.3333333333333357  0.2666666666666657  0.1698579369981488   F   F   F
  0.3333333333333357  0.2666666666666657  0.2683755404570718   F   F   F
  0.3333115935006044  0.0666445190674552  0.6080914144533693   T   T   F
  0.3333296115105019  0.0666751259102494  0.7066090179122924   T   T   F
  0.3333333333333357  0.0666666666666700  0.1698579369981488   F   F   F
  0.3333333333333357  0.0666666666666700  0.2683755404570718   F   F   F
  0.1333321253072681  0.8666719450827239  0.6080914144533693   T   T   F
  0.1333328508131463  0.8666779437902173  0.7066090179122924   T   T   F
  0.1333333333333329  0.8666666666666671  0.1698579369981488   F   F   F
  0.1333333333333329  0.8666666666666671  0.2683755404570718   F   F   F
  0.1333504422593862  0.6666743951759379  0.6080914144533693   T   T   F
  0.1333367970653329  0.6666775878448723  0.7066090179122924   T   T   F
  0.3333352314892296  0.2667088106812874  0.7066090179122924   T   T   F
  0.1333333333333329  0.6666666666666643  0.1698579369981488   F   F   F
  0.1334149950331233  0.4666763506569119  0.6080914144533693   T   T   F
  0.1333550402861367  0.4666628688913376  0.7066090179122924   T   T   F
  0.1333333333333329  0.4666666666666686  0.1698579369981488   F   F   F
  0.1333333333333329  0.4666666666666686  0.2683755404570718   F   F   F
  0.1333889222421451  0.2667338811044726  0.6080914144533693   T   T   F
  0.1333455852382286  0.2666545865385910  0.7066090179122924   T   T   F
  0.1333333333333329  0.2666666666666657  0.1698579369981488   F   F   F
  0.1333333333333329  0.2666666666666657  0.2683755404570718   F   F   F
  0.1333129992854005  0.0666422264331647  0.6080914144533693   T   T   F
  0.1333273931507223  0.0666742365875070  0.7066090179122924   T   T   F
  0.1333333333333329  0.0666666666666700  0.1698579369981488   F   F   F
  0.1333333333333329  0.0666666666666700  0.2683755404570718   F   F   F
  0.1333333333333329  0.6666666666666643  0.2683755404570718   F   F   F
  0.3333231938919695  0.2666930447902773  0.6080914144533693   T   T   F
  0.3333333333333357  0.4666666666666686  0.2683755404570718   F   F   F
  0.3333333333333357  0.4666666666666686  0.1698579369981488   F   F   F
  0.5333333333333314  0.8666666666666671  0.2683755404570718   F   F   F
  0.5332707734810251  0.6666030497625237  0.6080914144533693   T   T   F
  0.5333503179123378  0.6666470429786964  0.7066090179122924   T   T   F
  0.5333333333333314  0.6666666666666643  0.1698579369981488   F   F   F
  0.5333333333333314  0.6666666666666643  0.2683755404570718   F   F   F
  0.5333994505664191  0.4666690346958290  0.6080914144533693   T   T   F
  0.5333216820232550  0.4666650307318169  0.7066090179122924   T   T   F
  0.5333333333333314  0.4666666666666686  0.1698579369981488   F   F   F
  0.5333333333333314  0.4666666666666686  0.2683755404570718   F   F   F
  0.5332999333751216  0.2666727341238623  0.6080914144533693   T   T   F
  0.5333161737449901  0.2666698991054107  0.7066090179122924   T   T   F
  0.5333333333333314  0.2666666666666657  0.1698579369981488   F   F   F
  0.5333333333333314  0.2666666666666657  0.2683755404570718   F   F   F
  0.5333449066052405  0.0666529418428975  0.6080914144533693   T   T   F
  0.9333298799953773  0.8666707036532014  0.7066090179122924   T   T   F
  0.5333333333333314  0.0666666666666700  0.1698579369981488   F   F   F
  0.5333333333333314  0.0666666666666700  0.2683755404570718   F   F   F
  0.3333219399994296  0.8666427511858713  0.6080914144533693   T   T   F
  0.3333230629989533  0.8666648530956932  0.7066090179122924   T   T   F
  0.3333333333333357  0.8666666666666671  0.1698579369981488   F   F   F
  0.3333333333333357  0.8666666666666671  0.2683755404570718   F   F   F
  0.3333691904354304  0.6666082106168805  0.6080914144533693   T   T   F
  0.3333530594672001  0.6666521305975317  0.7066090179122924   T   T   F
  0.3333333333333357  0.6666666666666643  0.1698579369981488   F   F   F
  0.3333333333333357  0.6666666666666643  0.2683755404570718   F   F   F
  0.3333737324699647  0.4666959010131589  0.6080914144533693   T   T   F
  0.3333580498666862  0.4666376785473810  0.7066090179122924   T   T   F
  0.5333416756712775  0.8666584659050693  0.7066090179122924   T   T   F
  0.9333329964182516  0.8666664498087324  0.6080914144533693   T   T   F
 
  0.00000000E+00  0.00000000E+00  0.00000000E+00
  0.00000000E+00  0.00000000E+00  0.00000000E+00
  0.00000000E+00  0.00000000E+00  0.00000000E+00
  0.00000000E+00  0.00000000E+00  0.00000000E+00
  0.00000000E+00  0.00000000E+00  0.00000000E+00
  0.00000000E+00  0.00000000E+00  0.00000000E+00
  0.00000000E+00  0.00000000E+00  0.00000000E+00
  0.00000000E+00  0.00000000E+00  0.00000000E+00
  0.00000000E+00  0.00000000E+00  0.00000000E+00
  0.00000000E+00  0.00000000E+00  0.00000000E+00
  0.00000000E+00  0.00000000E+00  0.00000000E+00
  0.00000000E+00  0.00000000E+00  0.00000000E+00
  0.00000000E+00  0.00000000E+00  0.00000000E+00
  0.00000000E+00  0.00000000E+00  0.00000000E+00
  0.00000000E+00  0.00000000E+00  0.00000000E+00
  0.00000000E+00  0.00000000E+00  0.00000000E+00
  0.00000000E+00  0.00000000E+00  0.00000000E+00
  0.00000000E+00  0.00000000E+00  0.00000000E+00
  0.00000000E+00  0.00000000E+00  0.00000000E+00
  0.00000000E+00  0.00000000E+00  0.00000000E+00
  0.00000000E+00  0.00000000E+00  0.00000000E+00
  0.00000000E+00  0.00000000E+00  0.00000000E+00
  0.00000000E+00  0.00000000E+00  0.00000000E+00
  0.00000000E+00  0.00000000E+00  0.00000000E+00
  0.00000000E+00  0.00000000E+00  0.00000000E+00
  0.00000000E+00  0.00000000E+00  0.00000000E+00
  0.00000000E+00  0.00000000E+00  0.00000000E+00
  0.00000000E+00  0.00000000E+00  0.00000000E+00
  0.00000000E+00  0.00000000E+00  0.00000000E+00
  0.00000000E+00  0.00000000E+00  0.00000000E+00
  0.00000000E+00  0.00000000E+00  0.00000000E+00
  0.00000000E+00  0.00000000E+00  0.00000000E+00
  0.00000000E+00  0.00000000E+00  0.00000000E+00
  0.00000000E+00  0.00000000E+00  0.00000000E+00
  0.00000000E+00  0.00000000E+00  0.00000000E+00
  0.00000000E+00  0.00000000E+00  0.00000000E+00
  0.00000000E+00  0.00000000E+00  0.00000000E+00
  0.00000000E+00  0.00000000E+00  0.00000000E+00
  0.00000000E+00  0.00000000E+00  0.00000000E+00
  0.00000000E+00  0.00000000E+00  0.00000000E+00
  0.00000000E+00  0.00000000E+00  0.00000000E+00
  0.00000000E+00  0.00000000E+00  0.00000000E+00
  0.00000000E+00  0.00000000E+00  0.00000000E+00
  0.00000000E+00  0.00000000E+00  0.00000000E+00
  0.00000000E+00  0.00000000E+00  0.00000000E+00
  0.00000000E+00  0.00000000E+00  0.00000000E+00
  0.00000000E+00  0.00000000E+00  0.00000000E+00
  0.00000000E+00  0.00000000E+00  0.00000000E+00
  0.00000000E+00  0.00000000E+00  0.00000000E+00
  0.00000000E+00  0.00000000E+00  0.00000000E+00
  0.00000000E+00  0.00000000E+00  0.00000000E+00
  0.00000000E+00  0.00000000E+00  0.00000000E+00
  0.00000000E+00  0.00000000E+00  0.00000000E+00
  0.00000000E+00  0.00000000E+00  0.00000000E+00
  0.00000000E+00  0.00000000E+00  0.00000000E+00
  0.00000000E+00  0.00000000E+00  0.00000000E+00
  0.00000000E+00  0.00000000E+00  0.00000000E+00
  0.00000000E+00  0.00000000E+00  0.00000000E+00
  0.00000000E+00  0.00000000E+00  0.00000000E+00
  0.00000000E+00  0.00000000E+00  0.00000000E+00
  0.00000000E+00  0.00000000E+00  0.00000000E+00
  0.00000000E+00  0.00000000E+00  0.00000000E+00
  0.00000000E+00  0.00000000E+00  0.00000000E+00
  0.00000000E+00  0.00000000E+00  0.00000000E+00
  0.00000000E+00  0.00000000E+00  0.00000000E+00
  0.00000000E+00  0.00000000E+00  0.00000000E+00
  0.00000000E+00  0.00000000E+00  0.00000000E+00
  0.00000000E+00  0.00000000E+00  0.00000000E+00
  0.00000000E+00  0.00000000E+00  0.00000000E+00
  0.00000000E+00  0.00000000E+00  0.00000000E+00
  0.00000000E+00  0.00000000E+00  0.00000000E+00
  0.00000000E+00  0.00000000E+00  0.00000000E+00
  0.00000000E+00  0.00000000E+00  0.00000000E+00
  0.00000000E+00  0.00000000E+00  0.00000000E+00
  0.00000000E+00  0.00000000E+00  0.00000000E+00
  0.00000000E+00  0.00000000E+00  0.00000000E+00
  0.00000000E+00  0.00000000E+00  0.00000000E+00
  0.00000000E+00  0.00000000E+00  0.00000000E+00
  0.00000000E+00  0.00000000E+00  0.00000000E+00
  0.00000000E+00  0.00000000E+00  0.00000000E+00
  0.00000000E+00  0.00000000E+00  0.00000000E+00
  0.00000000E+00  0.00000000E+00  0.00000000E+00
  0.00000000E+00  0.00000000E+00  0.00000000E+00
  0.00000000E+00  0.00000000E+00  0.00000000E+00
  0.00000000E+00  0.00000000E+00  0.00000000E+00
  0.00000000E+00  0.00000000E+00  0.00000000E+00
  0.00000000E+00  0.00000000E+00  0.00000000E+00
  0.00000000E+00  0.00000000E+00  0.00000000E+00
  0.00000000E+00  0.00000000E+00  0.00000000E+00
  0.00000000E+00  0.00000000E+00  0.00000000E+00
  0.00000000E+00  0.00000000E+00  0.00000000E+00
  0.00000000E+00  0.00000000E+00  0.00000000E+00
  0.00000000E+00  0.00000000E+00  0.00000000E+00
  0.00000000E+00  0.00000000E+00  0.00000000E+00
  0.00000000E+00  0.00000000E+00  0.00000000E+00
  0.00000000E+00  0.00000000E+00  0.00000000E+00
  0.00000000E+00  0.00000000E+00  0.00000000E+00
  0.00000000E+00  0.00000000E+00  0.00000000E+00
  0.00000000E+00  0.00000000E+00  0.00000000E+00
  0.00000000E+00  0.00000000E+00  0.00000000E+00
  0.00000000E+00  0.00000000E+00  0.00000000E+00
  0.00000000E+00  0.00000000E+00  0.00000000E+00
  0.00000000E+00  0.00000000E+00  0.00000000E+00
  0.00000000E+00  0.00000000E+00  0.00000000E+00
  0.00000000E+00  0.00000000E+00  0.00000000E+00
  0.00000000E+00  0.00000000E+00  0.00000000E+00
  0.00000000E+00  0.00000000E+00  0.00000000E+00
  0.00000000E+00  0.00000000E+00  0.00000000E+00
  0.00000000E+00  0.00000000E+00  0.00000000E+00
  0.00000000E+00  0.00000000E+00  0.00000000E+00
  0.00000000E+00  0.00000000E+00  0.00000000E+00
  0.00000000E+00  0.00000000E+00  0.00000000E+00
  0.00000000E+00  0.00000000E+00  0.00000000E+00
  0.00000000E+00  0.00000000E+00  0.00000000E+00
  0.00000000E+00  0.00000000E+00  0.00000000E+00
  0.00000000E+00  0.00000000E+00  0.00000000E+00
  0.00000000E+00  0.00000000E+00  0.00000000E+00
  0.00000000E+00  0.00000000E+00  0.00000000E+00
  0.00000000E+00  0.00000000E+00  0.00000000E+00
  0.00000000E+00  0.00000000E+00  0.00000000E+00
  0.00000000E+00  0.00000000E+00  0.00000000E+00
  0.00000000E+00  0.00000000E+00  0.00000000E+00
  0.00000000E+00  0.00000000E+00  0.00000000E+00
  0.00000000E+00  0.00000000E+00  0.00000000E+00
  0.00000000E+00  0.00000000E+00  0.00000000E+00
  0.00000000E+00  0.00000000E+00  0.00000000E+00
  0.00000000E+00  0.00000000E+00  0.00000000E+00
  0.00000000E+00  0.00000000E+00  0.00000000E+00
  0.00000000E+00  0.00000000E+00  0.00000000E+00
  0.00000000E+00  0.00000000E+00  0.00000000E+00
  0.00000000E+00  0.00000000E+00  0.00000000E+00
  0.00000000E+00  0.00000000E+00  0.00000000E+00
  0.00000000E+00  0.00000000E+00  0.00000000E+00
  0.00000000E+00  0.00000000E+00  0.00000000E+00
  0.00000000E+00  0.00000000E+00  0.00000000E+00
  0.00000000E+00  0.00000000E+00  0.00000000E+00
  0.00000000E+00  0.00000000E+00  0.00000000E+00
  0.00000000E+00  0.00000000E+00  0.00000000E+00
  0.00000000E+00  0.00000000E+00  0.00000000E+00
  0.00000000E+00  0.00000000E+00  0.00000000E+00
  0.00000000E+00  0.00000000E+00  0.00000000E+00
  0.00000000E+00  0.00000000E+00  0.00000000E+00
  0.00000000E+00  0.00000000E+00  0.00000000E+00
  0.00000000E+00  0.00000000E+00  0.00000000E+00
  0.00000000E+00  0.00000000E+00  0.00000000E+00
  0.00000000E+00  0.00000000E+00  0.00000000E+00
  0.00000000E+00  0.00000000E+00  0.00000000E+00
  0.00000000E+00  0.00000000E+00  0.00000000E+00
  0.00000000E+00  0.00000000E+00  0.00000000E+00
  0.00000000E+00  0.00000000E+00  0.00000000E+00
  0.00000000E+00  0.00000000E+00  0.00000000E+00
  0.00000000E+00  0.00000000E+00  0.00000000E+00
  0.00000000E+00  0.00000000E+00  0.00000000E+00
  0.00000000E+00  0.00000000E+00  0.00000000E+00
  0.00000000E+00  0.00000000E+00  0.00000000E+00
  0.00000000E+00  0.00000000E+00  0.00000000E+00
  0.00000000E+00  0.00000000E+00  0.00000000E+00
  0.00000000E+00  0.00000000E+00  0.00000000E+00
  0.00000000E+00  0.00000000E+00  0.00000000E+00
  0.00000000E+00  0.00000000E+00  0.00000000E+00
  0.00000000E+00  0.00000000E+00  0.00000000E+00
  0.00000000E+00  0.00000000E+00  0.00000000E+00
  0.00000000E+00  0.00000000E+00  0.00000000E+00
  0.00000000E+00  0.00000000E+00  0.00000000E+00
  0.00000000E+00  0.00000000E+00  0.00000000E+00
  0.00000000E+00  0.00000000E+00  0.00000000E+00
  0.00000000E+00  0.00000000E+00  0.00000000E+00
  0.00000000E+00  0.00000000E+00  0.00000000E+00
  0.00000000E+00  0.00000000E+00  0.00000000E+00
  0.00000000E+00  0.00000000E+00  0.00000000E+00
  0.00000000E+00  0.00000000E+00  0.00000000E+00
