 C Cr  H Mo  S 
 1.0000000000000000
    15.9000000000000004    0.0000000000000000    0.0000000000000000
    -7.9500000000000037   13.7698039201725724    0.0000000000000000
     0.0000000000000000    0.0000000000000000   32.3799999999999955
  10   1  10  50 100
Selective dynamics
Cartesian
  2.9990747549348673  5.4769964956952473 16.2162476875896573   T   T   F
  1.9813108745158976  5.9341829987340020 15.3340064441111856   T   T   F
  4.0434790428285297  6.4489145420989837 16.2446646044515539   T   T   F
  3.6694390993735393  7.5312947871889753 15.3702864604745599   T   T   F
  2.3822740283119908  7.2036631857380291 14.8022155240420457   T   T   F
  3.8043371496528082  4.2310645922529844 12.7935143945443741   T   T   F
  4.8819184884949074  6.2490706992822123 12.3744980255116630   T   T   F
  3.6706304865426862  5.5105759768287852 12.1357122298645539   T   T   F
  5.7491231275647579  5.4358468126234314 13.1612513652908500   T   T   F
  5.0936755176958215  4.1999190699066249 13.4246507894966527   T   T   F
  3.8413484820684412  5.8002178999260767 14.2049248045491492   T   T   F
  1.8090634718635301  7.8177780162723156 14.1118437170100410   T   T   F
  2.8257458389312120  5.8414326724765022 11.5368555959286709   T   T   F
  3.0759181691625317  3.4236243298774376 12.7874312962965018   T   T   F
  5.0934250861051540  7.2596039894249023 12.0333540173573521   T   T   F
  6.7172515532428143  5.7383983533017524 13.5559633882063508   T   T   F
  1.0771586485661508  5.3896879756910669 15.0712842829598230   T   T   F
  3.0081045183089929  4.5175834877385528 16.7295203588986325   T   T   F
  4.9636229746696721  6.3759143894233610 16.8200050066817752   T   T   F
  4.2332480248267137  8.4459703853674277 15.2037681833675560   T   T   F
  5.4907028269292795  3.3887111611680512 14.0315896317095916   T   T   F
  4.7700000000000005  8.2618823521035445 21.2850000000000001   T   T   F
 -3.1800000000000002 11.0158431361380593  7.0949999999999998   F   F   F
 -1.5900000000000003  8.2618823521035445 21.2850000000000001   T   T   F
  3.1800000000000006 11.0158431361380593  7.0949999999999998   F   F   F
 -1.5900000000000003  8.2618823521035445  7.0949999999999998   F   F   F
  3.1800000000000006 11.0158431361380593 21.2850000000000001   T   T   F
  0.0000000000000000  5.5079215680690297  7.0949999999999998   F   F   F
 12.7200000000000006  0.0000000000000000  7.0949999999999998   F   F   F
  1.5900000000000001  2.7539607840345148 21.2850000000000001   T   T   F
 12.7200000000000006  0.0000000000000000 21.2850000000000001   T   T   F
  1.5900000000000001  2.7539607840345148  7.0949999999999998   F   F   F
 -3.1800000000000002 11.0158431361380593 21.2850000000000001   T   T   F
  0.0000000000000000  5.5079215680690297 21.2850000000000001   T   T   F
  4.7700000000000005  8.2618823521035445  7.0949999999999998   F   F   F
  1.5899999999999999  8.2618823521035445  7.0949999999999998   F   F   F
  6.3600000000000003  0.0000000000000000 21.2850000000000001   T   T   F
  6.3600000000000012  5.5079215680690297 21.2850000000000001   T   T   F
  4.7700000000000005  2.7539607840345148  7.0949999999999998   F   F   F
  6.3600000000000012  5.5079215680690297  7.0949999999999998   F   F   F
  4.7700000000000005  2.7539607840345148 21.2850000000000001   T   T   F
  3.1800000000000002  5.5079215680690297  7.0949999999999998   F   F   F
  7.9500000000000011  2.7539607840345148 21.2850000000000001   T   T   F
  3.1800000000000002  5.5079215680690297 21.2850000000000001   T   T   F
  7.9500000000000011  2.7539607840345148  7.0949999999999998   F   F   F
  0.0000000000000000 11.0158431361380593 21.2850000000000001   T   T   F
  1.5899999999999999  8.2618823521035445 21.2850000000000001   T   T   F
  9.5400000000000009  0.0000000000000000 21.2850000000000001   T   T   F
  0.0000000000000000 11.0158431361380593  7.0949999999999998   F   F   F
  9.5400000000000009  0.0000000000000000  7.0949999999999998   F   F   F
  6.3600000000000003  0.0000000000000000  7.0949999999999998   F   F   F
 11.1300000000000008  2.7539607840345148  7.0949999999999998   F   F   F
  3.1800000000000002  0.0000000000000000 21.2850000000000001   T   T   F
  3.1800000000000002  0.0000000000000000  7.0949999999999998   F   F   F
  0.0000000000000000  0.0000000000000000  7.0949999999999998   F   F   F
  6.3600000000000003 11.0158431361380593 21.2850000000000001   T   T   F
  0.0000000000000000  0.0000000000000000 21.2850000000000001   T   T   F
  6.3600000000000003 11.0158431361380593  7.0949999999999998   F   F   F
 -1.5900000000000001  2.7539607840345148  7.0949999999999998   F   F   F
 -1.5900000000000001  2.7539607840345148 21.2850000000000001   T   T   F
  7.9500000000000002  8.2618823521035445 21.2850000000000001   T   T   F
 -3.1800000000000002  5.5079215680690297  7.0949999999999998   F   F   F
 -3.1800000000000002  5.5079215680690297 21.2850000000000001   T   T   F
 -4.7700000000000005  8.2618823521035445  7.0949999999999998   F   F   F
  9.5400000000000009  5.5079215680690297 21.2850000000000001   T   T   F
 -4.7700000000000005  8.2618823521035445 21.2850000000000001   T   T   F
  7.9500000000000002  8.2618823521035445  7.0949999999999998   F   F   F
  9.5400000000000009  5.5079215680690297  7.0949999999999998   F   F   F
 -6.3600000000000003 11.0158431361380593 21.2850000000000001   T   T   F
 -6.3600000000000003 11.0158431361380593  7.0949999999999998   F   F   F
 11.1300000000000008  2.7539607840345148 21.2850000000000001   T   T   F
 14.3100000000000005  0.9179869280115049  5.5000000000000000   F   F   F
  9.5400000000000009  3.6719477120460198 19.6899999999999977   T   T   F
  9.5400000000000009  3.6719477120460198 22.8799999999999990   T   T   F
  9.5400000000000009  9.1798692801150494 22.8799999999999990   T   T   F
  9.5400000000000009  9.1798692801150494 19.6899999999999977   T   T   F
  9.5400000000000009  3.6719477120460198  5.5000000000000000   F   F   F
  9.5400000000000009  3.6719477120460198  8.6899999999999995   F   F   F
 11.1300000000000008  6.4259084960805346  8.6899999999999995   F   F   F
 11.1300000000000008  0.9179869280115049 19.6899999999999977   T   T   F
 11.1300000000000008  0.9179869280115049 22.8799999999999990   T   T   F
 14.3100000000000005  0.9179869280115049 22.8799999999999990   T   T   F
  7.9500000000000002 11.9338300641495643  5.5000000000000000   F   F   F
 11.1300000000000008  0.9179869280115049  5.5000000000000000   F   F   F
 14.3100000000000005  0.9179869280115049 19.6899999999999977   T   T   F
 11.1300000000000008  0.9179869280115049  8.6899999999999995   F   F   F
 12.7200000000000006  3.6719477120460198  5.5000000000000000   F   F   F
 12.7200000000000006  3.6719477120460198 22.8799999999999990   T   T   F
  7.9500000000000002 11.9338300641495643  8.6899999999999995   F   F   F
  7.9500000000000011  6.4259084960805346  8.6899999999999995   F   F   F
  7.9500000000000011  6.4259084960805346  5.5000000000000000   F   F   F
  4.7700000000000005 11.9338300641495643  5.5000000000000000   F   F   F
  4.7700000000000005 11.9338300641495643 22.8799999999999990   T   T   F
  4.7700000000000005 11.9338300641495643  8.6899999999999995   F   F   F
 11.1300000000000008  6.4259084960805346  5.5000000000000000   F   F   F
  4.7700000000000005 11.9338300641495643 19.6899999999999977   T   T   F
  6.3600000000000003  9.1798692801150494 19.6899999999999977   T   T   F
  6.3600000000000003  9.1798692801150494 22.8799999999999990   T   T   F
 11.1300000000000008  6.4259084960805346 22.8799999999999990   T   T   F
  6.3600000000000003  9.1798692801150494  5.5000000000000000   F   F   F
 11.1300000000000008  6.4259084960805346 19.6899999999999977   T   T   F
  6.3600000000000003  9.1798692801150494  8.6899999999999995   F   F   F
 12.7200000000000006  3.6719477120460198 19.6899999999999977   T   T   F
 12.7200000000000006  3.6719477120460198  8.6899999999999995   F   F   F
  7.9500000000000011  6.4259084960805346 19.6899999999999977   T   T   F
  7.9500000000000011  6.4259084960805346 22.8799999999999990   T   T   F
  9.5400000000000009  9.1798692801150494  8.6899999999999995   F   F   F
 14.3100000000000005  0.9179869280115049  8.6899999999999995   F   F   F
  9.5400000000000009  9.1798692801150494  5.5000000000000000   F   F   F
  1.5900000000000001 11.9338300641495643 19.6899999999999977   T   T   F
  7.9500000000000002  0.9179869280115049 22.8799999999999990   T   T   F
  1.5900000000000001 11.9338300641495643  5.5000000000000000   F   F   F
  3.1800000000000002  3.6719477120460198  5.5000000000000000   F   F   F
  3.1800000000000002  3.6719477120460198  8.6899999999999995   F   F   F
  4.7700000000000005  0.9179869280115049 19.6899999999999977   T   T   F
  4.7700000000000005  0.9179869280115049 22.8799999999999990   T   T   F
  4.7700000000000005  0.9179869280115049  5.5000000000000000   F   F   F
  4.7700000000000005  0.9179869280115049  8.6899999999999995   F   F   F
 -4.7700000000000005 11.9338300641495643 19.6899999999999977   T   T   F
 -4.7700000000000005 11.9338300641495643 22.8799999999999990   T   T   F
 -4.7700000000000005 11.9338300641495643  5.5000000000000000   F   F   F
 -4.7700000000000005 11.9338300641495643  8.6899999999999995   F   F   F
 -3.1800000000000006  9.1798692801150494 19.6899999999999977   T   T   F
 -3.1800000000000006  9.1798692801150494 22.8799999999999990   T   T   F
  3.1800000000000002  3.6719477120460198 22.8799999999999990   T   T   F
 -3.1800000000000006  9.1798692801150494  5.5000000000000000   F   F   F
 -1.5900000000000001  6.4259084960805346 19.6899999999999977   T   T   F
 -1.5900000000000001  6.4259084960805346 22.8799999999999990   T   T   F
 -1.5900000000000001  6.4259084960805346  5.5000000000000000   F   F   F
 -1.5900000000000001  6.4259084960805346  8.6899999999999995   F   F   F
  0.0000000000000000  3.6719477120460198 19.6899999999999977   T   T   F
  0.0000000000000000  3.6719477120460198 22.8799999999999990   T   T   F
  0.0000000000000000  3.6719477120460198  5.5000000000000000   F   F   F
  0.0000000000000000  3.6719477120460198  8.6899999999999995   F   F   F
  1.5900000000000001  0.9179869280115049 19.6899999999999977   T   T   F
  1.5900000000000001  0.9179869280115049 22.8799999999999990   T   T   F
  1.5900000000000001  0.9179869280115049  5.5000000000000000   F   F   F
  1.5900000000000001  0.9179869280115049  8.6899999999999995   F   F   F
 -3.1800000000000006  9.1798692801150494  8.6899999999999995   F   F   F
  3.1800000000000002  3.6719477120460198 19.6899999999999977   T   T   F
  1.5900000000000001  6.4259084960805346  8.6899999999999995   F   F   F
  1.5900000000000001  6.4259084960805346  5.5000000000000000   F   F   F
  1.5900000000000001 11.9338300641495643  8.6899999999999995   F   F   F
  3.1799999999999997  9.1798692801150494 19.6899999999999977   T   T   F
  3.1799999999999997  9.1798692801150494 22.8799999999999990   T   T   F
  3.1799999999999997  9.1798692801150494  5.5000000000000000   F   F   F
  3.1799999999999997  9.1798692801150494  8.6899999999999995   F   F   F
  4.7700000000000005  6.4259084960805346 19.6899999999999977   T   T   F
  4.7700000000000005  6.4259084960805346 22.8799999999999990   T   T   F
  4.7700000000000005  6.4259084960805346  5.5000000000000000   F   F   F
  4.7700000000000005  6.4259084960805346  8.6899999999999995   F   F   F
  6.3600000000000003  3.6719477120460198 19.6899999999999977   T   T   F
  6.3600000000000003  3.6719477120460198 22.8799999999999990   T   T   F
  6.3600000000000003  3.6719477120460198  5.5000000000000000   F   F   F
  6.3600000000000003  3.6719477120460198  8.6899999999999995   F   F   F
  7.9500000000000002  0.9179869280115049 19.6899999999999977   T   T   F
  7.9500000000000002 11.9338300641495643 22.8799999999999990   T   T   F
  7.9500000000000002  0.9179869280115049  5.5000000000000000   F   F   F
  7.9500000000000002  0.9179869280115049  8.6899999999999995   F   F   F
 -1.5900000000000001 11.9338300641495643 19.6899999999999977   T   T   F
 -1.5900000000000001 11.9338300641495643 22.8799999999999990   T   T   F
 -1.5900000000000001 11.9338300641495643  5.5000000000000000   F   F   F
 -1.5900000000000001 11.9338300641495643  8.6899999999999995   F   F   F
 -0.0000000000000002  9.1798692801150494 19.6899999999999977   T   T   F
 -0.0000000000000002  9.1798692801150494 22.8799999999999990   T   T   F
 -0.0000000000000002  9.1798692801150494  5.5000000000000000   F   F   F
 -0.0000000000000002  9.1798692801150494  8.6899999999999995   F   F   F
  1.5900000000000001  6.4259084960805346 19.6899999999999977   T   T   F
  1.5900000000000001  6.4259084960805346 22.8799999999999990   T   T   F
  1.5900000000000001 11.9338300641495643 22.8799999999999990   T   T   F
  7.9500000000000002 11.9338300641495643 19.6899999999999977   T   T   F
