 C Cr  H Mo  S 
 1.0000000000000000
    15.9000000000000004    0.0000000000000000    0.0000000000000000
    -7.9500000000000037   13.7698039201725724    0.0000000000000000
     0.0000000000000000    0.0000000000000000   32.3799999999999955
  10   1  10  50 100
Selective dynamics
Cartesian
  4.4036116479761898  5.5676509408975940 16.3172012436506293   T   T   T
  3.5294387348746037  4.5199508914344486 15.9155063956688103   T   T   T
  3.7436162222090545  6.8146319076330375 16.1035261790645698   T   T   T
  2.4357994252015729  6.5405109527579883 15.5645800403002070   T   T   T
  2.3081847012711014  5.1064037459390814 15.4467158097816633   T   T   T
  5.0092534112520815  4.8934778852854555 12.6985570537163088   T   T   T
  3.2692477377905691  6.3519745225220996 12.1943024326799740   T   T   T
  3.6215595651944699  4.9613137488546348 12.3017767264516600   T   T   T
  4.4220708967779885  7.1273240763009253 12.5139735559733225   T   T   T
  5.4903393345054479  6.2401873917943753 12.8275006825987088   T   T   T
  3.8516548227877814  5.8239966041394347 14.1984876217847926   T   T   T
  1.4357775113982338  4.5659200671088955 15.0874057945760480   T   T   T
  2.9716899575080769  4.1169466607277192 12.0858156134541712   T   T   T
  5.5950172747573825  3.9887846735784098 12.8434773125844579   T   T   T
  2.2895346558685779  6.7460229554663185 11.9351115469914895   T   T   T
  4.4577682526341009  8.2131461973157691 12.5797282874110969   T   T   T
  3.7671622658869226  3.4585984707913395 15.9182584433606031   T   T   T
  5.4266450108033748  5.4402416759290597 16.6653008117607193   T   T   T
  4.1628235124226478  7.7978736396383352 16.3048006193399644   T   T   T
  1.6705213109187760  7.2768268859069414 15.3312807789957350   T   T   T
  6.4878020960203777  6.5367209301849867 13.1456195497922597   T   T   T
  4.7700000000000005  8.2618823521035445 21.2850000000000001   T   T   T
 -3.1800000000000002 11.0158431361380593  7.0949999999999998   F   F   F
 -1.5900000000000003  8.2618823521035445 21.2850000000000001   T   T   T
  3.1800000000000006 11.0158431361380593  7.0949999999999998   F   F   F
 -1.5900000000000003  8.2618823521035445  7.0949999999999998   F   F   F
  3.1800000000000006 11.0158431361380593 21.2850000000000001   T   T   T
  0.0000000000000000  5.5079215680690297  7.0949999999999998   F   F   F
 12.7200000000000006  0.0000000000000000  7.0949999999999998   F   F   F
  1.5900000000000001  2.7539607840345148 21.2850000000000001   T   T   T
 12.7200000000000006  0.0000000000000000 21.2850000000000001   T   T   T
  1.5900000000000001  2.7539607840345148  7.0949999999999998   F   F   F
 -3.1800000000000002 11.0158431361380593 21.2850000000000001   T   T   T
  0.0000000000000000  5.5079215680690297 21.2850000000000001   T   T   T
  4.7700000000000005  8.2618823521035445  7.0949999999999998   F   F   F
  1.5899999999999999  8.2618823521035445  7.0949999999999998   F   F   F
  6.3600000000000003  0.0000000000000000 21.2850000000000001   T   T   T
  6.3600000000000012  5.5079215680690297 21.2850000000000001   T   T   T
  4.7700000000000005  2.7539607840345148  7.0949999999999998   F   F   F
  6.3600000000000012  5.5079215680690297  7.0949999999999998   F   F   F
  4.7700000000000005  2.7539607840345148 21.2850000000000001   T   T   T
  3.1800000000000002  5.5079215680690297  7.0949999999999998   F   F   F
  7.9500000000000011  2.7539607840345148 21.2850000000000001   T   T   T
  3.1800000000000002  5.5079215680690297 21.2850000000000001   T   T   T
  7.9500000000000011  2.7539607840345148  7.0949999999999998   F   F   F
  0.0000000000000000 11.0158431361380593 21.2850000000000001   T   T   T
  1.5899999999999999  8.2618823521035445 21.2850000000000001   T   T   T
  9.5400000000000009  0.0000000000000000 21.2850000000000001   T   T   T
  0.0000000000000000 11.0158431361380593  7.0949999999999998   F   F   F
  9.5400000000000009  0.0000000000000000  7.0949999999999998   F   F   F
  6.3600000000000003  0.0000000000000000  7.0949999999999998   F   F   F
 11.1300000000000008  2.7539607840345148  7.0949999999999998   F   F   F
  3.1800000000000002  0.0000000000000000 21.2850000000000001   T   T   T
  3.1800000000000002  0.0000000000000000  7.0949999999999998   F   F   F
  0.0000000000000000  0.0000000000000000  7.0949999999999998   F   F   F
  6.3600000000000003 11.0158431361380593 21.2850000000000001   T   T   T
  0.0000000000000000  0.0000000000000000 21.2850000000000001   T   T   T
  6.3600000000000003 11.0158431361380593  7.0949999999999998   F   F   F
 -1.5900000000000001  2.7539607840345148  7.0949999999999998   F   F   F
 -1.5900000000000001  2.7539607840345148 21.2850000000000001   T   T   T
  7.9500000000000002  8.2618823521035445 21.2850000000000001   T   T   T
 -3.1800000000000002  5.5079215680690297  7.0949999999999998   F   F   F
 -3.1800000000000002  5.5079215680690297 21.2850000000000001   T   T   T
 -4.7700000000000005  8.2618823521035445  7.0949999999999998   F   F   F
  9.5400000000000009  5.5079215680690297 21.2850000000000001   T   T   T
 -4.7700000000000005  8.2618823521035445 21.2850000000000001   T   T   T
  7.9500000000000002  8.2618823521035445  7.0949999999999998   F   F   F
  9.5400000000000009  5.5079215680690297  7.0949999999999998   F   F   F
 -6.3600000000000003 11.0158431361380593 21.2850000000000001   T   T   T
 -6.3600000000000003 11.0158431361380593  7.0949999999999998   F   F   F
 11.1300000000000008  2.7539607840345148 21.2850000000000001   T   T   T
 14.3100000000000005  0.9179869280115049  5.5000000000000000   F   F   F
  9.5400000000000009  3.6719477120460198 19.6899999999999977   T   T   T
  9.5400000000000009  3.6719477120460198 22.8799999999999990   T   T   T
  9.5400000000000009  9.1798692801150494 22.8799999999999990   T   T   T
  9.5400000000000009  9.1798692801150494 19.6899999999999977   T   T   T
  9.5400000000000009  3.6719477120460198  5.5000000000000000   F   F   F
  9.5400000000000009  3.6719477120460198  8.6899999999999995   F   F   F
 11.1300000000000008  6.4259084960805346  8.6899999999999995   F   F   F
 11.1300000000000008  0.9179869280115049 19.6899999999999977   T   T   T
 11.1300000000000008  0.9179869280115049 22.8799999999999990   T   T   T
 14.3100000000000005  0.9179869280115049 22.8799999999999990   T   T   T
  7.9500000000000002 11.9338300641495643  5.5000000000000000   F   F   F
 11.1300000000000008  0.9179869280115049  5.5000000000000000   F   F   F
 14.3100000000000005  0.9179869280115049 19.6899999999999977   T   T   T
 11.1300000000000008  0.9179869280115049  8.6899999999999995   F   F   F
 12.7200000000000006  3.6719477120460198  5.5000000000000000   F   F   F
 12.7200000000000006  3.6719477120460198 22.8799999999999990   T   T   T
  7.9500000000000002 11.9338300641495643  8.6899999999999995   F   F   F
  7.9500000000000011  6.4259084960805346  8.6899999999999995   F   F   F
  7.9500000000000011  6.4259084960805346  5.5000000000000000   F   F   F
  4.7700000000000005 11.9338300641495643  5.5000000000000000   F   F   F
  4.7700000000000005 11.9338300641495643 22.8799999999999990   T   T   T
  4.7700000000000005 11.9338300641495643  8.6899999999999995   F   F   F
 11.1300000000000008  6.4259084960805346  5.5000000000000000   F   F   F
  4.7700000000000005 11.9338300641495643 19.6899999999999977   T   T   T
  6.3600000000000003  9.1798692801150494 19.6899999999999977   T   T   T
  6.3600000000000003  9.1798692801150494 22.8799999999999990   T   T   T
 11.1300000000000008  6.4259084960805346 22.8799999999999990   T   T   T
  6.3600000000000003  9.1798692801150494  5.5000000000000000   F   F   F
 11.1300000000000008  6.4259084960805346 19.6899999999999977   T   T   T
  6.3600000000000003  9.1798692801150494  8.6899999999999995   F   F   F
 12.7200000000000006  3.6719477120460198 19.6899999999999977   T   T   T
 12.7200000000000006  3.6719477120460198  8.6899999999999995   F   F   F
  7.9500000000000011  6.4259084960805346 19.6899999999999977   T   T   T
  7.9500000000000011  6.4259084960805346 22.8799999999999990   T   T   T
  9.5400000000000009  9.1798692801150494  8.6899999999999995   F   F   F
 14.3100000000000005  0.9179869280115049  8.6899999999999995   F   F   F
  9.5400000000000009  9.1798692801150494  5.5000000000000000   F   F   F
  1.5900000000000001 11.9338300641495643 19.6899999999999977   T   T   T
  7.9500000000000002  0.9179869280115049 22.8799999999999990   T   T   T
  1.5900000000000001 11.9338300641495643  5.5000000000000000   F   F   F
  3.1800000000000002  3.6719477120460198  5.5000000000000000   F   F   F
  3.1800000000000002  3.6719477120460198  8.6899999999999995   F   F   F
  4.7700000000000005  0.9179869280115049 19.6899999999999977   T   T   T
  4.7700000000000005  0.9179869280115049 22.8799999999999990   T   T   T
  4.7700000000000005  0.9179869280115049  5.5000000000000000   F   F   F
  4.7700000000000005  0.9179869280115049  8.6899999999999995   F   F   F
 -4.7700000000000005 11.9338300641495643 19.6899999999999977   T   T   T
 -4.7700000000000005 11.9338300641495643 22.8799999999999990   T   T   T
 -4.7700000000000005 11.9338300641495643  5.5000000000000000   F   F   F
 -4.7700000000000005 11.9338300641495643  8.6899999999999995   F   F   F
 -3.1800000000000006  9.1798692801150494 19.6899999999999977   T   T   T
 -3.1800000000000006  9.1798692801150494 22.8799999999999990   T   T   T
  3.1800000000000002  3.6719477120460198 22.8799999999999990   T   T   T
 -3.1800000000000006  9.1798692801150494  5.5000000000000000   F   F   F
 -1.5900000000000001  6.4259084960805346 19.6899999999999977   T   T   T
 -1.5900000000000001  6.4259084960805346 22.8799999999999990   T   T   T
 -1.5900000000000001  6.4259084960805346  5.5000000000000000   F   F   F
 -1.5900000000000001  6.4259084960805346  8.6899999999999995   F   F   F
  0.0000000000000000  3.6719477120460198 19.6899999999999977   T   T   T
  0.0000000000000000  3.6719477120460198 22.8799999999999990   T   T   T
  0.0000000000000000  3.6719477120460198  5.5000000000000000   F   F   F
  0.0000000000000000  3.6719477120460198  8.6899999999999995   F   F   F
  1.5900000000000001  0.9179869280115049 19.6899999999999977   T   T   T
  1.5900000000000001  0.9179869280115049 22.8799999999999990   T   T   T
  1.5900000000000001  0.9179869280115049  5.5000000000000000   F   F   F
  1.5900000000000001  0.9179869280115049  8.6899999999999995   F   F   F
 -3.1800000000000006  9.1798692801150494  8.6899999999999995   F   F   F
  3.1800000000000002  3.6719477120460198 19.6899999999999977   T   T   T
  1.5900000000000001  6.4259084960805346  8.6899999999999995   F   F   F
  1.5900000000000001  6.4259084960805346  5.5000000000000000   F   F   F
  1.5900000000000001 11.9338300641495643  8.6899999999999995   F   F   F
  3.1799999999999997  9.1798692801150494 19.6899999999999977   T   T   T
  3.1799999999999997  9.1798692801150494 22.8799999999999990   T   T   T
  3.1799999999999997  9.1798692801150494  5.5000000000000000   F   F   F
  3.1799999999999997  9.1798692801150494  8.6899999999999995   F   F   F
  4.7700000000000005  6.4259084960805346 19.6899999999999977   T   T   T
  4.7700000000000005  6.4259084960805346 22.8799999999999990   T   T   T
  4.7700000000000005  6.4259084960805346  5.5000000000000000   F   F   F
  4.7700000000000005  6.4259084960805346  8.6899999999999995   F   F   F
  6.3600000000000003  3.6719477120460198 19.6899999999999977   T   T   T
  6.3600000000000003  3.6719477120460198 22.8799999999999990   T   T   T
  6.3600000000000003  3.6719477120460198  5.5000000000000000   F   F   F
  6.3600000000000003  3.6719477120460198  8.6899999999999995   F   F   F
  7.9500000000000002  0.9179869280115049 19.6899999999999977   T   T   T
  7.9500000000000002 11.9338300641495643 22.8799999999999990   T   T   T
  7.9500000000000002  0.9179869280115049  5.5000000000000000   F   F   F
  7.9500000000000002  0.9179869280115049  8.6899999999999995   F   F   F
 -1.5900000000000001 11.9338300641495643 19.6899999999999977   T   T   T
 -1.5900000000000001 11.9338300641495643 22.8799999999999990   T   T   T
 -1.5900000000000001 11.9338300641495643  5.5000000000000000   F   F   F
 -1.5900000000000001 11.9338300641495643  8.6899999999999995   F   F   F
 -0.0000000000000002  9.1798692801150494 19.6899999999999977   T   T   T
 -0.0000000000000002  9.1798692801150494 22.8799999999999990   T   T   T
 -0.0000000000000002  9.1798692801150494  5.5000000000000000   F   F   F
 -0.0000000000000002  9.1798692801150494  8.6899999999999995   F   F   F
  1.5900000000000001  6.4259084960805346 19.6899999999999977   T   T   T
  1.5900000000000001  6.4259084960805346 22.8799999999999990   T   T   T
  1.5900000000000001 11.9338300641495643 22.8799999999999990   T   T   T
  7.9500000000000002 11.9338300641495643 19.6899999999999977   T   T   T
