 C Cr  H Mo  S                          
   1.00000000000000     
     9.5709464550000014    0.0000000000000000    0.0000000000000000
    -6.3806280268000020   11.0515787236000005    0.0000000000000000
     0.0000000000000000    0.0000000000000000   34.8802625070458063
   C    Cr   H    Mo   S 
    10     1    10    24    48
Direct
  0.6650431685561277  0.4377503540452269  0.9849135848974181
  0.6776704813530904  0.5537493982684540  0.9851956994008417
  0.8231826146466038  0.4539794032021918  0.9871088836829498
  0.9365161178273683  0.5815022966678294  0.9889711586270806
  0.8455887927389747  0.6439316910991768  0.9877671533301609
  0.7013096812558666  0.5455804472219863  0.8843114995769527
  0.9805824173995618  0.6433928466817652  0.8899249657549720
  0.8447092087153800  0.6622091409877221  0.8894569606188374
  0.9227289940186574  0.5175516761048607  0.8850695550874152
  0.7514917789391317  0.4566839576948716  0.8817301427554138
  0.8136580675185104  0.5485282354979263  0.9363878907639436
  0.8946905183286120  0.7411792022684327  0.9895840153496562
  0.8495265536152217  0.7489778344457041  0.8915113570479594
  0.9961260608253508  0.4744297439505938  0.8855000521802098
  0.1059460308586676  0.7129674954320160  0.8940264755661850
  0.5785334863036777  0.5284859290414781  0.8815115065254967
  0.5775473953313491  0.5709686419507539  0.9830945686670691
  0.5539346423181887  0.3516609656424495  0.9814834014441183
  0.8527919552110361  0.3820443087164396  0.9864628243194308
  0.0667047064672771  0.6230681973265543  0.9916984758098001
  0.6725872823158132  0.3597118806012014  0.8782242970777846
  0.5556570563010512  0.0838341644257857  0.2499256385154003
  0.5556613573420979  0.3338375773800720  0.2499246379438515
  0.4432419113054334  0.4167354611355480  0.7499529713749216
  0.5556613693801351  0.5838349492579742  0.2499249961714093
  0.4431225374065667  0.6666733757629174  0.7499224713566065
  0.5556576661484435  0.8338320949915013  0.2499258720635503
  0.4431622959844588  0.9165835340077942  0.7499984342958204
  0.8889946597118041  0.3338462684564223  0.2499353447393234
  0.7766293493608728  0.1666514915717311  0.7500320362055500
  0.7765691343450278  0.4167770095911937  0.7499053606842915
  0.8889940447032858  0.5838407386718840  0.2499335357730174
  0.7764921456012265  0.6666647910603297  0.7498007985652781
  0.8889948297670568  0.8338374011724198  0.2499359087566286
  0.7766413350144313  0.9166191708418384  0.7500024074695819
  0.1098507564210419  0.9165639609604058  0.7500025202885704
  0.8889964732595516  0.0838434106332084  0.2499373002103908
  0.2223081666403010  0.8338504518133643  0.2499338135829780
  0.4432274415145710  0.1666056196565741  0.7499153484582384
  0.2223116344728183  0.5838570228437118  0.2499335912974509
  0.1098675610256123  0.4166950828146619  0.7500714922216577
  0.2223162927401120  0.3338603863341096  0.2499348916318669
  0.2223116633082121  0.0838537893198449  0.2499347526026285
  0.1099514114269148  0.1666221371493892  0.7500522361664371
  0.1096828402528355  0.6665908159926429  0.7498872553025789
  0.7772534219816815  0.1663609070209812  0.2945043874418284
  0.8883206884362018  0.0840688261881652  0.7946039915213430
  0.7772814660505674  0.1663680525669393  0.2053657044038890
  0.8884143725591407  0.0841700209560749  0.7054638224919634
  0.2214606865101154  0.0840458553484214  0.7054275170404802
  0.1106029852211071  0.1663829353814363  0.2053679114676074
  0.7772553207667446  0.4163607581132104  0.2945038175868449
  0.8880612286775502  0.3342999976953501  0.7946110035527516
  0.1105975891980379  0.6663766407789942  0.2053641595781437
  0.5550138553509969  0.8341846836467288  0.7054098343125382
  0.8884320484847086  0.3340919358318064  0.7054500737550532
  0.2217906600618143  0.0840640127528115  0.7945620900410877
  0.1106112164251330  0.1663854877338162  0.2945087438066555
  0.7772567778750095  0.6663551882245244  0.2945039343980079
  0.8880370158115185  0.5843640419218229  0.7942296512424796
  0.7772811691588047  0.6663654939048023  0.2053624214273591
  0.8882362659832419  0.5840887998483161  0.7052186565034497
  0.7772552357346739  0.9163566754948794  0.2945045083083594
  0.8881009965209197  0.8337762834698955  0.7945501961626509
  0.7772811637474268  0.4163686834201675  0.2053619790666335
  0.4439161212250646  0.9163553443176755  0.2053615245073504
  0.4439421240457790  0.9163665776371019  0.2944999777711516
  0.2214190399580478  0.5839121090295908  0.7054038510694508
  0.2214752806283678  0.5842732922928139  0.7945930592850918
  0.1106074081791343  0.9163797068196488  0.2945079750787471
  0.2213582019025556  0.8338166564970554  0.7945745341365917
  0.1105981334452095  0.9163762063881962  0.2053666599938248
  0.2216629202749316  0.8341968338182950  0.7053993935581229
  0.1106024723492837  0.6663798995887146  0.2945074295917519
  0.7772831446294218  0.9163658897021640  0.2053660451207749
  0.4439477905083311  0.1663720343092935  0.2944999841673959
  0.5548966571504956  0.0841429587891435  0.7945551993883151
  0.4439190748463999  0.1663601586920467  0.2053611674134671
  0.5551294620749231  0.0840765732459899  0.7054220649447607
  0.4439519625930813  0.4163726333105252  0.2945000492788586
  0.5549326492269776  0.3341002735193241  0.7944396751034681
  0.4439228221813206  0.4163625470372039  0.2053599346729970
  0.5548523587476220  0.3341239984479729  0.7053495761375140
  0.2214353786396735  0.3340724835747682  0.7054679832067348
  0.1106023837531824  0.4163829486196032  0.2053659379138405
  0.4439467130375830  0.6663681324364636  0.2944995883950198
  0.5550870143258011  0.5843379045071546  0.7944493645228909
  0.4439204274347155  0.6663577501996444  0.2053606529684205
  0.5546178353229239  0.5840396188454967  0.7053090995032670
  0.2218448188466635  0.3342421670716543  0.7946057453206850
  0.1106069997806795  0.4163858337758403  0.2945080194780240
  0.5549172311350483  0.8340060909308569  0.7945498258985811
  0.8884345102941674  0.8343397325883372  0.7053556362923690
 
  0.00000000E+00  0.00000000E+00  0.00000000E+00
  0.00000000E+00  0.00000000E+00  0.00000000E+00
  0.00000000E+00  0.00000000E+00  0.00000000E+00
  0.00000000E+00  0.00000000E+00  0.00000000E+00
  0.00000000E+00  0.00000000E+00  0.00000000E+00
  0.00000000E+00  0.00000000E+00  0.00000000E+00
  0.00000000E+00  0.00000000E+00  0.00000000E+00
  0.00000000E+00  0.00000000E+00  0.00000000E+00
  0.00000000E+00  0.00000000E+00  0.00000000E+00
  0.00000000E+00  0.00000000E+00  0.00000000E+00
  0.00000000E+00  0.00000000E+00  0.00000000E+00
  0.00000000E+00  0.00000000E+00  0.00000000E+00
  0.00000000E+00  0.00000000E+00  0.00000000E+00
  0.00000000E+00  0.00000000E+00  0.00000000E+00
  0.00000000E+00  0.00000000E+00  0.00000000E+00
  0.00000000E+00  0.00000000E+00  0.00000000E+00
  0.00000000E+00  0.00000000E+00  0.00000000E+00
  0.00000000E+00  0.00000000E+00  0.00000000E+00
  0.00000000E+00  0.00000000E+00  0.00000000E+00
  0.00000000E+00  0.00000000E+00  0.00000000E+00
  0.00000000E+00  0.00000000E+00  0.00000000E+00
  0.00000000E+00  0.00000000E+00  0.00000000E+00
  0.00000000E+00  0.00000000E+00  0.00000000E+00
  0.00000000E+00  0.00000000E+00  0.00000000E+00
  0.00000000E+00  0.00000000E+00  0.00000000E+00
  0.00000000E+00  0.00000000E+00  0.00000000E+00
  0.00000000E+00  0.00000000E+00  0.00000000E+00
  0.00000000E+00  0.00000000E+00  0.00000000E+00
  0.00000000E+00  0.00000000E+00  0.00000000E+00
  0.00000000E+00  0.00000000E+00  0.00000000E+00
  0.00000000E+00  0.00000000E+00  0.00000000E+00
  0.00000000E+00  0.00000000E+00  0.00000000E+00
  0.00000000E+00  0.00000000E+00  0.00000000E+00
  0.00000000E+00  0.00000000E+00  0.00000000E+00
  0.00000000E+00  0.00000000E+00  0.00000000E+00
  0.00000000E+00  0.00000000E+00  0.00000000E+00
  0.00000000E+00  0.00000000E+00  0.00000000E+00
  0.00000000E+00  0.00000000E+00  0.00000000E+00
  0.00000000E+00  0.00000000E+00  0.00000000E+00
  0.00000000E+00  0.00000000E+00  0.00000000E+00
  0.00000000E+00  0.00000000E+00  0.00000000E+00
  0.00000000E+00  0.00000000E+00  0.00000000E+00
  0.00000000E+00  0.00000000E+00  0.00000000E+00
  0.00000000E+00  0.00000000E+00  0.00000000E+00
  0.00000000E+00  0.00000000E+00  0.00000000E+00
  0.00000000E+00  0.00000000E+00  0.00000000E+00
  0.00000000E+00  0.00000000E+00  0.00000000E+00
  0.00000000E+00  0.00000000E+00  0.00000000E+00
  0.00000000E+00  0.00000000E+00  0.00000000E+00
  0.00000000E+00  0.00000000E+00  0.00000000E+00
  0.00000000E+00  0.00000000E+00  0.00000000E+00
  0.00000000E+00  0.00000000E+00  0.00000000E+00
  0.00000000E+00  0.00000000E+00  0.00000000E+00
  0.00000000E+00  0.00000000E+00  0.00000000E+00
  0.00000000E+00  0.00000000E+00  0.00000000E+00
  0.00000000E+00  0.00000000E+00  0.00000000E+00
  0.00000000E+00  0.00000000E+00  0.00000000E+00
  0.00000000E+00  0.00000000E+00  0.00000000E+00
  0.00000000E+00  0.00000000E+00  0.00000000E+00
  0.00000000E+00  0.00000000E+00  0.00000000E+00
  0.00000000E+00  0.00000000E+00  0.00000000E+00
  0.00000000E+00  0.00000000E+00  0.00000000E+00
  0.00000000E+00  0.00000000E+00  0.00000000E+00
  0.00000000E+00  0.00000000E+00  0.00000000E+00
  0.00000000E+00  0.00000000E+00  0.00000000E+00
  0.00000000E+00  0.00000000E+00  0.00000000E+00
  0.00000000E+00  0.00000000E+00  0.00000000E+00
  0.00000000E+00  0.00000000E+00  0.00000000E+00
  0.00000000E+00  0.00000000E+00  0.00000000E+00
  0.00000000E+00  0.00000000E+00  0.00000000E+00
  0.00000000E+00  0.00000000E+00  0.00000000E+00
  0.00000000E+00  0.00000000E+00  0.00000000E+00
  0.00000000E+00  0.00000000E+00  0.00000000E+00
  0.00000000E+00  0.00000000E+00  0.00000000E+00
  0.00000000E+00  0.00000000E+00  0.00000000E+00
  0.00000000E+00  0.00000000E+00  0.00000000E+00
  0.00000000E+00  0.00000000E+00  0.00000000E+00
  0.00000000E+00  0.00000000E+00  0.00000000E+00
  0.00000000E+00  0.00000000E+00  0.00000000E+00
  0.00000000E+00  0.00000000E+00  0.00000000E+00
  0.00000000E+00  0.00000000E+00  0.00000000E+00
  0.00000000E+00  0.00000000E+00  0.00000000E+00
  0.00000000E+00  0.00000000E+00  0.00000000E+00
  0.00000000E+00  0.00000000E+00  0.00000000E+00
  0.00000000E+00  0.00000000E+00  0.00000000E+00
  0.00000000E+00  0.00000000E+00  0.00000000E+00
  0.00000000E+00  0.00000000E+00  0.00000000E+00
  0.00000000E+00  0.00000000E+00  0.00000000E+00
  0.00000000E+00  0.00000000E+00  0.00000000E+00
  0.00000000E+00  0.00000000E+00  0.00000000E+00
  0.00000000E+00  0.00000000E+00  0.00000000E+00
  0.00000000E+00  0.00000000E+00  0.00000000E+00
  0.00000000E+00  0.00000000E+00  0.00000000E+00
