 C Cr  H Mo  S 
 1.0000000000000000
     9.5709464550000014    0.0000000000000000    0.0000000000000000
    -6.3806280268000020   11.0515787236000005    0.0000000000000000
     0.0000000000000000    0.0000000000000000   34.8802625070458063
  10   1  10  24  48
Cartesian
  3.5515202273652102  4.8346580031958082 34.3436552411749005
  2.9547281013405504  6.1249479144707442 34.3905970106111738
  4.9694149447882028  4.9901461956261999 34.3837865130031801
  5.2616242093016758  6.3988834502320211 34.4616524628380674
  4.0002903782153574  7.1030682928467934 34.4629366895414293
  3.1871635673653049  6.0573238600983990 30.8381981448233873
  5.2299995688006211  7.1454600641037018 31.0659822094944218
  3.8050748301352719  7.3434529386725220 31.0657683701708436
  5.4853289453883347  5.7617616824679798 30.8367585378974631
  4.2382776340324142  5.0889214457571175 30.7001669792993788
  4.2674859951343205  6.0527699655733720 32.6516407276702836
  3.8652360570594126  8.1800022958452843 34.5284659392967441
  3.2900852678712345  8.2943143387655596 31.1779014937593146
  6.4655178082891638  5.2886610792277127 30.8404022538067437
 -3.5880917941077146  7.9120983397067866 31.2326158504881697
  2.1210431351406993  5.8598866345464655 30.7545515161558143
  1.8889737690805284  6.3340337690796362 34.3319470281737438
  3.0172447147379167  3.8936881725317702 34.2290727557651095
  5.6980784937478113  4.1833067029640842 34.3510768579834789
 -3.3218262952599416  6.8457174785482371 34.5478579727603190
  4.1083615043713424  4.0185692088141556 30.5534304746761443
  4.7854750152839500  0.9209639422765983  8.7203894212259332
  3.1903180085839504  3.6838586231765982  8.7203894212259332
  1.5951572859421390  4.6048253090076150 26.1598745039230707
  1.5951610018839504  6.4467533040765987  8.7203894212259332
  0.0000002792421390  7.3677199899076147 26.1598745039230707
  0.0000039951839503  9.2096479849765984  8.7203894212259332
 -1.5951567274578611 10.1306146708076152 26.1598745039230707
  6.3806334935839502  3.6838586231765982  8.7203894212259332
  6.3806297776421390  1.8419306281076149 26.1598745039230707
  4.7854727709421390  4.6048253090076150 26.1598745039230707
  4.7854764868839510  6.4467533040765987  8.7203894212259332
  3.1903157642421394  7.3677199899076147 26.1598745039230707
  3.1903194801839505  9.2096479849765984  8.7203894212259332
  1.5951587575421391 10.1306146708076152 26.1598745039230707
 -4.7854722124578615 10.1306146708076152 26.1598745039230707
  7.9757905002839511  0.9209639422765983  8.7203894212259332
 -3.1903114898160498  9.2096479849765984  8.7203894212259332
  3.1903142926421393  1.8419306281076149 26.1598745039230707
 -1.5951544831160498  6.4467533040765987  8.7203894212259332
 -1.5951581990578612  4.6048253090076150 26.1598745039230707
  0.0000025235839503  3.6838586231765982  8.7203894212259332
  1.5951595302839503  0.9209639422765983  8.7203894212259332
 -0.0000011923578611  1.8419306281076149 26.1598745039230707
 -3.1903152057578610  7.3677199899076147 26.1598745039230707
  6.3806297776421390  1.8419306281076149 10.2852783946298043
  7.9757905002839511  0.9209639422765983 27.7247625070458064
  6.3806297776421390  1.8419306281076149  7.1554999999999991
  7.9757905002839511  0.9209639422765983 24.5949845851170643
  1.5951595302839503  0.9209639422765983 24.5949845851170643
 -0.0000011923578611  1.8419306281076149  7.1554999999999991
  4.7854727709421390  4.6048253090076150 10.2852783946298043
  6.3806334935839502  3.6838586231765982 27.7247625070458064
 -3.1903152057578610  7.3677199899076147  7.1554999999999991
  0.0000039951839503  9.2096479849765984 24.5949845851170643
  6.3806334935839502  3.6838586231765982 24.5949845851170643
  1.5951595302839503  0.9209639422765983 27.7247625070458064
 -0.0000011923578611  1.8419306281076149 10.2852783946298043
  3.1903157642421394  7.3677199899076147 10.2852783946298043
  4.7854764868839510  6.4467533040765987 27.7247625070458064
  3.1903157642421394  7.3677199899076147  7.1554999999999991
  4.7854764868839510  6.4467533040765987 24.5949845851170643
  1.5951587575421391 10.1306146708076152 10.2852783946298043
  3.1903194801839505  9.2096479849765984 27.7247625070458064
  4.7854727709421390  4.6048253090076150  7.1554999999999991
 -1.5951567274578611 10.1306146708076152  7.1554999999999991
 -1.5951567274578611 10.1306146708076152 10.2852783946298043
 -1.5951544831160498  6.4467533040765987 24.5949845851170643
 -1.5951544831160498  6.4467533040765987 27.7247625070458064
 -4.7854722124578615 10.1306146708076152 10.2852783946298043
 -3.1903114898160498  9.2096479849765984 27.7247625070458064
 -4.7854722124578615 10.1306146708076152  7.1554999999999991
 -3.1903114898160498  9.2096479849765984 24.5949845851170643
 -3.1903152057578610  7.3677199899076147 10.2852783946298043
  1.5951587575421391 10.1306146708076152  7.1554999999999991
  3.1903142926421393  1.8419306281076149 10.2852783946298043
  4.7854750152839500  0.9209639422765983 27.7247625070458064
  3.1903142926421393  1.8419306281076149  7.1554999999999991
  4.7854750152839500  0.9209639422765983 24.5949845851170643
  1.5951572859421390  4.6048253090076150 10.2852783946298043
  3.1903180085839504  3.6838586231765982 27.7247625070458064
  1.5951572859421390  4.6048253090076150  7.1554999999999991
  3.1903180085839504  3.6838586231765982 24.5949845851170643
  0.0000025235839503  3.6838586231765982 24.5949845851170643
 -1.5951581990578612  4.6048253090076150  7.1554999999999991
  0.0000002792421390  7.3677199899076147 10.2852783946298043
  1.5951610018839504  6.4467533040765987 27.7247625070458064
  0.0000002792421390  7.3677199899076147  7.1554999999999991
  1.5951610018839504  6.4467533040765987 24.5949845851170643
  0.0000025235839503  3.6838586231765982 27.7247625070458064
 -1.5951581990578612  4.6048253090076150 10.2852783946298043
  0.0000039951839503  9.2096479849765984 27.7247625070458064
  3.1903194801839505  9.2096479849765984 24.5949845851170643
