 C Co  H Mo  S                          
   1.00000000000000     
     9.5709464550000014    0.0000000000000000    0.0000000000000000
    -6.3806280268000020   11.0515787236000005    0.0000000000000000
     0.0000000000000000    0.0000000000000000   34.8802625070458063
   C    Co   H    Mo   S 
    10     1    10    24    48
Direct
  0.0709968909737598  0.8343055820080233  0.1007755688636030
  0.1082394662739499  0.7505109145456276  0.0825445568208845
  0.9412587670354041  0.7682993059777352  0.1271358126678835
  0.8966981978435392  0.6435464147502629  0.1248511923622249
  0.9996313130054572  0.6324822157025332  0.0972565828313284
  0.8429509307093770  0.7188978759967986  0.0140370871128456
  0.6372705301053835  0.5947841316005742  0.0557308521710708
  0.7446023085947732  0.5966216664090500  0.0266222379035599
  0.6690722218798458  0.7159713526114025  0.0610509170058298
  0.7975191227027728  0.7928678151643649  0.0356011035720287
  0.8724315627938325  0.7048165436655305  0.0721244067310654
  0.9937444092723335  0.5485633593367703  0.0885707781057494
  0.7523630543245634  0.5190890606597751  0.0165283545800346
  0.6111933183092011  0.7451674959270045  0.0819305520146252
  0.5503314634558857  0.5157780371928993  0.0717294017199661
  0.9383318664077572  0.7506717138047145 -0.0072935318559546
  0.1992352517235838  0.7722229969205457  0.0605581547717780
  0.1293166122571704  0.9309427043067994  0.0952430200246741
  0.8831021901089282  0.8056162497237515  0.1447976985204089
  0.7997553286783793  0.5698830516446046  0.1407993327641037
  0.8528273570719728  0.8906347217213697  0.0334882377441747
  0.5476850905830981  0.0872332011958578  0.2583565681370237
  0.5475841248602458  0.3372495624696782  0.2584538381891870
  0.4443471707863173  0.4160661584183615  0.7504824443148843
  0.5467511856163328  0.5869825442992718  0.2588262856850609
  0.4443493408353840  0.6660671526191329  0.7504836251422125
  0.5474196969504533  0.8369822462927692  0.2584661370343502
  0.4443510162642108  0.9160686227488887  0.7504837361892398
  0.8809743463460195  0.3371860184476848  0.2583311411542246
  0.7776984784122010  0.1660661576270403  0.7504756847588639
  0.7776971047762294  0.4160647085235107  0.7504758108347708
  0.8809907354980665  0.5872287077786094  0.2585676723897845
  0.7776958526334108  0.6660653090559433  0.7504763607339011
  0.8810048774877908  0.8372938977230658  0.2586232757038202
  0.7776961561004102  0.9160673826283039  0.7504765041735175
  0.1110148759274309  0.9160759185309436  0.7504764496420329
  0.8809971304879540  0.0872457094076531  0.2583414294599504
  0.2142062107077252  0.8371159517860215  0.2584730723097755
  0.4443496975977332  0.1660671167764771  0.7504834654012272
  0.2139280733967708  0.5870534640633029  0.2584961594272666
  0.1110144454598708  0.4160751050453486  0.7504756577435554
  0.2140867173497189  0.3370952591209701  0.2584045641469058
  0.2143313250835178  0.0872701712337662  0.2584906641120820
  0.1110151960478305  0.1660763122650714  0.7504756771516793
  0.1110159775996226  0.6660738631069815  0.7504764053367805
  0.7692871609580418  0.1697916086110774  0.3028949981897702
  0.8894289707135367  0.0835337563121319  0.7950223691134922
  0.7691511476551314  0.1696730667919123  0.2138019223683537
  0.8894179795894711  0.0835218558656959  0.7059138911410682
  0.2227586707071863  0.0835428482948273  0.7059162934603930
  0.1026554960586418  0.1696699140317489  0.2138490701778745
  0.7692120004835991  0.4195788675237831  0.3029882207323881
  0.8894272734459793  0.3335311330234953  0.7950222729735409
  0.1022852555517131  0.6697077501080868  0.2139140550891612
  0.5560801680915970  0.8335286145989129  0.7059193011197773
  0.8894174466360032  0.3335219463375082  0.7059136287501129
  0.2227561141312505  0.0835461814629049  0.7950242326992056
  0.1023119488053714  0.1696698577397079  0.3029593182634803
  0.7692372917105907  0.6697925180423451  0.3032488209477910
  0.8894261130968646  0.5835288608956368  0.7950229284139486
  0.7677803981948781  0.6693359190449807  0.2145490199519619
  0.8894191670954258  0.5835216209316323  0.7059145480241503
  0.7691607966460281  0.9200002091214124  0.3030112187624664
  0.8894268133320242  0.8335310746633007  0.7950228677705110
  0.7691535098741535  0.4200737564024920  0.2138975059959020
  0.4356980116294226  0.9195143546797889  0.2139057349879232
  0.4360058905862029  0.9199389154981817  0.3029704076115357
  0.2227601151019769  0.5835446050780708  0.7059164458924526
  0.2227566990867469  0.5835424602451696  0.7950244100613630
  0.1028544200614475  0.9199214195075515  0.3030777216338231
  0.2227560299307550  0.8335447299044858  0.7950246083140622
  0.1025682312959483  0.9197404801750445  0.2140204767797326
  0.2227589252087930  0.8335436936906052  0.7059174388091884
  0.1024917282517602  0.6697674546020806  0.3030895935480812
  0.7691042656391863  0.9194093235405957  0.2139111873644694
  0.4360597572053456  0.1697615850971202  0.3029620283086895
  0.5561025600141529  0.0835458177482163  0.7950249823798415
  0.4358035797226487  0.1698284680799501  0.2138976922930886
  0.5560792564579673  0.0835269423968353  0.7059189240318485
  0.4352582578547103  0.4191742993360859  0.3031229304588271
  0.5560978323585101  0.3335433809451731  0.7950246825335686
  0.4360204363677846  0.4200872620226394  0.2140079516997846
  0.5560782132086975  0.3335262144237195  0.7059182921914273
  0.2227579378801309  0.3335437291347711  0.7059155728350831
  0.1025743354713159  0.4197979435273462  0.2138375210428381
  0.4352022848392219  0.6698970467816089  0.3031880644257411
  0.5560981598774682  0.5835414744295382  0.7950250164873676
  0.4356673222103106  0.6694756658735209  0.2140138850817961
  0.5560803552082156  0.5835282210812525  0.7059186126218502
  0.2227555775870568  0.3335446628785028  0.7950237429296220
  0.1022148175111266  0.4195139193838512  0.3029608712043055
  0.5561016128778666  0.8335444406574917  0.7950251981775229
  0.8894185613756238  0.8335215834811965  0.7059148225801720
 
  0.00000000E+00  0.00000000E+00  0.00000000E+00
  0.00000000E+00  0.00000000E+00  0.00000000E+00
  0.00000000E+00  0.00000000E+00  0.00000000E+00
  0.00000000E+00  0.00000000E+00  0.00000000E+00
  0.00000000E+00  0.00000000E+00  0.00000000E+00
  0.00000000E+00  0.00000000E+00  0.00000000E+00
  0.00000000E+00  0.00000000E+00  0.00000000E+00
  0.00000000E+00  0.00000000E+00  0.00000000E+00
  0.00000000E+00  0.00000000E+00  0.00000000E+00
  0.00000000E+00  0.00000000E+00  0.00000000E+00
  0.00000000E+00  0.00000000E+00  0.00000000E+00
  0.00000000E+00  0.00000000E+00  0.00000000E+00
  0.00000000E+00  0.00000000E+00  0.00000000E+00
  0.00000000E+00  0.00000000E+00  0.00000000E+00
  0.00000000E+00  0.00000000E+00  0.00000000E+00
  0.00000000E+00  0.00000000E+00  0.00000000E+00
  0.00000000E+00  0.00000000E+00  0.00000000E+00
  0.00000000E+00  0.00000000E+00  0.00000000E+00
  0.00000000E+00  0.00000000E+00  0.00000000E+00
  0.00000000E+00  0.00000000E+00  0.00000000E+00
  0.00000000E+00  0.00000000E+00  0.00000000E+00
  0.00000000E+00  0.00000000E+00  0.00000000E+00
  0.00000000E+00  0.00000000E+00  0.00000000E+00
  0.00000000E+00  0.00000000E+00  0.00000000E+00
  0.00000000E+00  0.00000000E+00  0.00000000E+00
  0.00000000E+00  0.00000000E+00  0.00000000E+00
  0.00000000E+00  0.00000000E+00  0.00000000E+00
  0.00000000E+00  0.00000000E+00  0.00000000E+00
  0.00000000E+00  0.00000000E+00  0.00000000E+00
  0.00000000E+00  0.00000000E+00  0.00000000E+00
  0.00000000E+00  0.00000000E+00  0.00000000E+00
  0.00000000E+00  0.00000000E+00  0.00000000E+00
  0.00000000E+00  0.00000000E+00  0.00000000E+00
  0.00000000E+00  0.00000000E+00  0.00000000E+00
  0.00000000E+00  0.00000000E+00  0.00000000E+00
  0.00000000E+00  0.00000000E+00  0.00000000E+00
  0.00000000E+00  0.00000000E+00  0.00000000E+00
  0.00000000E+00  0.00000000E+00  0.00000000E+00
  0.00000000E+00  0.00000000E+00  0.00000000E+00
  0.00000000E+00  0.00000000E+00  0.00000000E+00
  0.00000000E+00  0.00000000E+00  0.00000000E+00
  0.00000000E+00  0.00000000E+00  0.00000000E+00
  0.00000000E+00  0.00000000E+00  0.00000000E+00
  0.00000000E+00  0.00000000E+00  0.00000000E+00
  0.00000000E+00  0.00000000E+00  0.00000000E+00
  0.00000000E+00  0.00000000E+00  0.00000000E+00
  0.00000000E+00  0.00000000E+00  0.00000000E+00
  0.00000000E+00  0.00000000E+00  0.00000000E+00
  0.00000000E+00  0.00000000E+00  0.00000000E+00
  0.00000000E+00  0.00000000E+00  0.00000000E+00
  0.00000000E+00  0.00000000E+00  0.00000000E+00
  0.00000000E+00  0.00000000E+00  0.00000000E+00
  0.00000000E+00  0.00000000E+00  0.00000000E+00
  0.00000000E+00  0.00000000E+00  0.00000000E+00
  0.00000000E+00  0.00000000E+00  0.00000000E+00
  0.00000000E+00  0.00000000E+00  0.00000000E+00
  0.00000000E+00  0.00000000E+00  0.00000000E+00
  0.00000000E+00  0.00000000E+00  0.00000000E+00
  0.00000000E+00  0.00000000E+00  0.00000000E+00
  0.00000000E+00  0.00000000E+00  0.00000000E+00
  0.00000000E+00  0.00000000E+00  0.00000000E+00
  0.00000000E+00  0.00000000E+00  0.00000000E+00
  0.00000000E+00  0.00000000E+00  0.00000000E+00
  0.00000000E+00  0.00000000E+00  0.00000000E+00
  0.00000000E+00  0.00000000E+00  0.00000000E+00
  0.00000000E+00  0.00000000E+00  0.00000000E+00
  0.00000000E+00  0.00000000E+00  0.00000000E+00
  0.00000000E+00  0.00000000E+00  0.00000000E+00
  0.00000000E+00  0.00000000E+00  0.00000000E+00
  0.00000000E+00  0.00000000E+00  0.00000000E+00
  0.00000000E+00  0.00000000E+00  0.00000000E+00
  0.00000000E+00  0.00000000E+00  0.00000000E+00
  0.00000000E+00  0.00000000E+00  0.00000000E+00
  0.00000000E+00  0.00000000E+00  0.00000000E+00
  0.00000000E+00  0.00000000E+00  0.00000000E+00
  0.00000000E+00  0.00000000E+00  0.00000000E+00
  0.00000000E+00  0.00000000E+00  0.00000000E+00
  0.00000000E+00  0.00000000E+00  0.00000000E+00
  0.00000000E+00  0.00000000E+00  0.00000000E+00
  0.00000000E+00  0.00000000E+00  0.00000000E+00
  0.00000000E+00  0.00000000E+00  0.00000000E+00
  0.00000000E+00  0.00000000E+00  0.00000000E+00
  0.00000000E+00  0.00000000E+00  0.00000000E+00
  0.00000000E+00  0.00000000E+00  0.00000000E+00
  0.00000000E+00  0.00000000E+00  0.00000000E+00
  0.00000000E+00  0.00000000E+00  0.00000000E+00
  0.00000000E+00  0.00000000E+00  0.00000000E+00
  0.00000000E+00  0.00000000E+00  0.00000000E+00
  0.00000000E+00  0.00000000E+00  0.00000000E+00
  0.00000000E+00  0.00000000E+00  0.00000000E+00
  0.00000000E+00  0.00000000E+00  0.00000000E+00
  0.00000000E+00  0.00000000E+00  0.00000000E+00
  0.00000000E+00  0.00000000E+00  0.00000000E+00
