 C Cr  H Mo  S 
 1.0000000000000000
    15.9000000000000004    0.0000000000000000    0.0000000000000000
    -7.9500000000000037   13.7698039201725724    0.0000000000000000
     0.0000000000000000    0.0000000000000000   54.3800000000000026
  10   1  10  50 100
Selective dynamics
Cartesian
  4.0303936790800670  4.1272953378515496 28.6117725813353445   T   T   F
  2.9210017537756761  4.9435218705717618 28.9670699636697471   T   T   F
  5.2050871795857940  4.9374090680247740 28.6069299875797469   T   T   F
  4.8234239331138049  6.2786788072366528 28.9693091617778471   T   T   F
  3.3958729136987271  6.2775821315953184 29.1905281924217164   T   T   F
  2.6214046440583827  5.5749387275697586 25.4756961245064346   T   T   F
  3.9413194312130728  7.4586640133202557 25.8199473551795329   T   T   F
  2.6036360532385783  6.9430980422275370 25.9399750382770478   T   T   F
  4.7676469239692345  6.4272194527664679 25.2854730464146442   T   T   F
  3.9662289349370288  5.2695026916612129 25.0758798235198128   T   T   F
  3.8411393355493040  5.7962783480125841 27.1841888350481575   T   T   F
  2.7914651641333403  7.1293710702084976 29.4929640953371646   T   T   F
  1.7319690242378774  7.4957887822844427 26.2815230220830536   T   T   F
  1.7672054208234202  4.9051576605407714 25.4099085739958888   T   T   F
  4.2717494755300027  8.4543150270031564 26.1059313588996460   T   T   F
  5.8435539418404288  6.4911546452350803 25.1340001298049067   T   T   F
  1.8836037433561315  4.6199572753249250 29.0128993477892294   T   T   F
  3.9793005997676181  3.0782897642759450 28.3272018600208604   T   T   F
  6.2092561600535419  4.5987221413734867 28.3620906925002103   T   T   F
  5.4943396982865451  7.1249705173251980 29.0954149444071213   T   T   F
  4.3236153455142947  4.3090030306716098 24.7101216131710757   T   T   F
  4.7700000000000005  8.2618823521035445 40.7850000000000037   T   T   F
 -3.1800000000000002 11.0158431361380593 13.5950000000000006   F   F   F
 -1.5900000000000003  8.2618823521035445 40.7850000000000037   T   T   F
  3.1800000000000006 11.0158431361380593 13.5950000000000006   F   F   F
 -1.5900000000000003  8.2618823521035445 13.5950000000000006   F   F   F
  3.1800000000000006 11.0158431361380593 40.7850000000000037   T   T   F
  0.0000000000000000  5.5079215680690297 13.5950000000000006   F   F   F
 12.7200000000000006  0.0000000000000000 13.5950000000000006   F   F   F
  1.5900000000000001  2.7539607840345148 40.7850000000000037   T   T   F
 12.7200000000000006  0.0000000000000000 40.7850000000000037   T   T   F
  1.5900000000000001  2.7539607840345148 13.5950000000000006   F   F   F
 -3.1800000000000002 11.0158431361380593 40.7850000000000037   T   T   F
  0.0000000000000000  5.5079215680690297 40.7850000000000037   T   T   F
  4.7700000000000005  8.2618823521035445 13.5950000000000006   F   F   F
  1.5899999999999999  8.2618823521035445 13.5950000000000006   F   F   F
  6.3600000000000003  0.0000000000000000 40.7850000000000037   T   T   F
  6.3600000000000012  5.5079215680690297 40.7850000000000037   T   T   F
  4.7700000000000005  2.7539607840345148 13.5950000000000006   F   F   F
  6.3600000000000012  5.5079215680690297 13.5950000000000006   F   F   F
  4.7700000000000005  2.7539607840345148 40.7850000000000037   T   T   F
  3.1800000000000002  5.5079215680690297 13.5950000000000006   F   F   F
  7.9500000000000011  2.7539607840345148 40.7850000000000037   T   T   F
  3.1800000000000002  5.5079215680690297 40.7850000000000037   T   T   F
  7.9500000000000011  2.7539607840345148 13.5950000000000006   F   F   F
  0.0000000000000000 11.0158431361380593 40.7850000000000037   T   T   F
  1.5899999999999999  8.2618823521035445 40.7850000000000037   T   T   F
  9.5400000000000009  0.0000000000000000 40.7850000000000037   T   T   F
  0.0000000000000000 11.0158431361380593 13.5950000000000006   F   F   F
  9.5400000000000009  0.0000000000000000 13.5950000000000006   F   F   F
  6.3600000000000003  0.0000000000000000 13.5950000000000006   F   F   F
 11.1300000000000008  2.7539607840345148 13.5950000000000006   F   F   F
  3.1800000000000002  0.0000000000000000 40.7850000000000037   T   T   F
  3.1800000000000002  0.0000000000000000 13.5950000000000006   F   F   F
  0.0000000000000000  0.0000000000000000 13.5950000000000006   F   F   F
  6.3600000000000003 11.0158431361380593 40.7850000000000037   T   T   F
  0.0000000000000000  0.0000000000000000 40.7850000000000037   T   T   F
  6.3600000000000003 11.0158431361380593 13.5950000000000006   F   F   F
 -1.5900000000000001  2.7539607840345148 13.5950000000000006   F   F   F
 -1.5900000000000001  2.7539607840345148 40.7850000000000037   T   T   F
  7.9500000000000002  8.2618823521035445 40.7850000000000037   T   T   F
 -3.1800000000000002  5.5079215680690297 13.5950000000000006   F   F   F
 -3.1800000000000002  5.5079215680690297 40.7850000000000037   T   T   F
 -4.7700000000000005  8.2618823521035445 13.5950000000000006   F   F   F
  9.5400000000000009  5.5079215680690297 40.7850000000000037   T   T   F
 -4.7700000000000005  8.2618823521035445 40.7850000000000037   T   T   F
  7.9500000000000002  8.2618823521035445 13.5950000000000006   F   F   F
  9.5400000000000009  5.5079215680690297 13.5950000000000006   F   F   F
 -6.3600000000000003 11.0158431361380593 40.7850000000000037   T   T   F
 -6.3600000000000003 11.0158431361380593 13.5950000000000006   F   F   F
 11.1300000000000008  2.7539607840345148 40.7850000000000037   T   T   F
 14.3100000000000005  0.9179869280115049 12.0000000000000000   F   F   F
  9.5400000000000009  3.6719477120460198 39.1899999999999977   T   T   F
  9.5400000000000009  3.6719477120460198 42.3800000000000026   T   T   F
  9.5400000000000009  9.1798692801150494 42.3800000000000026   T   T   F
  9.5400000000000009  9.1798692801150494 39.1899999999999977   T   T   F
  9.5400000000000009  3.6719477120460198 12.0000000000000000   F   F   F
  9.5400000000000009  3.6719477120460198 15.1900000000000013   F   F   F
 11.1300000000000008  6.4259084960805346 15.1900000000000013   F   F   F
 11.1300000000000008  0.9179869280115049 39.1899999999999977   T   T   F
 11.1300000000000008  0.9179869280115049 42.3800000000000026   T   T   F
 14.3100000000000005  0.9179869280115049 42.3800000000000026   T   T   F
  7.9500000000000002 11.9338300641495643 12.0000000000000000   F   F   F
 11.1300000000000008  0.9179869280115049 12.0000000000000000   F   F   F
 14.3100000000000005  0.9179869280115049 39.1899999999999977   T   T   F
 11.1300000000000008  0.9179869280115049 15.1900000000000013   F   F   F
 12.7200000000000006  3.6719477120460198 12.0000000000000000   F   F   F
 12.7200000000000006  3.6719477120460198 42.3800000000000026   T   T   F
  7.9500000000000002 11.9338300641495643 15.1900000000000013   F   F   F
  7.9500000000000011  6.4259084960805346 15.1900000000000013   F   F   F
  7.9500000000000011  6.4259084960805346 12.0000000000000000   F   F   F
  4.7700000000000005 11.9338300641495643 12.0000000000000000   F   F   F
  4.7700000000000005 11.9338300641495643 42.3800000000000026   T   T   F
  4.7700000000000005 11.9338300641495643 15.1900000000000013   F   F   F
 11.1300000000000008  6.4259084960805346 12.0000000000000000   F   F   F
  4.7700000000000005 11.9338300641495643 39.1899999999999977   T   T   F
  6.3600000000000003  9.1798692801150494 39.1899999999999977   T   T   F
  6.3600000000000003  9.1798692801150494 42.3800000000000026   T   T   F
 11.1300000000000008  6.4259084960805346 42.3800000000000026   T   T   F
  6.3600000000000003  9.1798692801150494 12.0000000000000000   F   F   F
 11.1300000000000008  6.4259084960805346 39.1899999999999977   T   T   F
  6.3600000000000003  9.1798692801150494 15.1900000000000013   F   F   F
 12.7200000000000006  3.6719477120460198 39.1899999999999977   T   T   F
 12.7200000000000006  3.6719477120460198 15.1900000000000013   F   F   F
  7.9500000000000011  6.4259084960805346 39.1899999999999977   T   T   F
  7.9500000000000011  6.4259084960805346 42.3800000000000026   T   T   F
  9.5400000000000009  9.1798692801150494 15.1900000000000013   F   F   F
 14.3100000000000005  0.9179869280115049 15.1900000000000013   F   F   F
  9.5400000000000009  9.1798692801150494 12.0000000000000000   F   F   F
  1.5900000000000001 11.9338300641495643 39.1899999999999977   T   T   F
  7.9500000000000002  0.9179869280115049 42.3800000000000026   T   T   F
  1.5900000000000001 11.9338300641495643 12.0000000000000000   F   F   F
  3.1800000000000002  3.6719477120460198 12.0000000000000000   F   F   F
  3.1800000000000002  3.6719477120460198 15.1900000000000013   F   F   F
  4.7700000000000005  0.9179869280115049 39.1899999999999977   T   T   F
  4.7700000000000005  0.9179869280115049 42.3800000000000026   T   T   F
  4.7700000000000005  0.9179869280115049 12.0000000000000000   F   F   F
  4.7700000000000005  0.9179869280115049 15.1900000000000013   F   F   F
 -4.7700000000000005 11.9338300641495643 39.1899999999999977   T   T   F
 -4.7700000000000005 11.9338300641495643 42.3800000000000026   T   T   F
 -4.7700000000000005 11.9338300641495643 12.0000000000000000   F   F   F
 -4.7700000000000005 11.9338300641495643 15.1900000000000013   F   F   F
 -3.1800000000000006  9.1798692801150494 39.1899999999999977   T   T   F
 -3.1800000000000006  9.1798692801150494 42.3800000000000026   T   T   F
  3.1800000000000002  3.6719477120460198 42.3800000000000026   T   T   F
 -3.1800000000000006  9.1798692801150494 12.0000000000000000   F   F   F
 -1.5900000000000001  6.4259084960805346 39.1899999999999977   T   T   F
 -1.5900000000000001  6.4259084960805346 42.3800000000000026   T   T   F
 -1.5900000000000001  6.4259084960805346 12.0000000000000000   F   F   F
 -1.5900000000000001  6.4259084960805346 15.1900000000000013   F   F   F
  0.0000000000000000  3.6719477120460198 39.1899999999999977   T   T   F
  0.0000000000000000  3.6719477120460198 42.3800000000000026   T   T   F
  0.0000000000000000  3.6719477120460198 12.0000000000000000   F   F   F
  0.0000000000000000  3.6719477120460198 15.1900000000000013   F   F   F
  1.5900000000000001  0.9179869280115049 39.1899999999999977   T   T   F
  1.5900000000000001  0.9179869280115049 42.3800000000000026   T   T   F
  1.5900000000000001  0.9179869280115049 12.0000000000000000   F   F   F
  1.5900000000000001  0.9179869280115049 15.1900000000000013   F   F   F
 -3.1800000000000006  9.1798692801150494 15.1900000000000013   F   F   F
  3.1800000000000002  3.6719477120460198 39.1899999999999977   T   T   F
  1.5900000000000001  6.4259084960805346 15.1900000000000013   F   F   F
  1.5900000000000001  6.4259084960805346 12.0000000000000000   F   F   F
  1.5900000000000001 11.9338300641495643 15.1900000000000013   F   F   F
  3.1799999999999997  9.1798692801150494 39.1899999999999977   T   T   F
  3.1799999999999997  9.1798692801150494 42.3800000000000026   T   T   F
  3.1799999999999997  9.1798692801150494 12.0000000000000000   F   F   F
  3.1799999999999997  9.1798692801150494 15.1900000000000013   F   F   F
  4.7700000000000005  6.4259084960805346 39.1899999999999977   T   T   F
  4.7700000000000005  6.4259084960805346 42.3800000000000026   T   T   F
  4.7700000000000005  6.4259084960805346 12.0000000000000000   F   F   F
  4.7700000000000005  6.4259084960805346 15.1900000000000013   F   F   F
  6.3600000000000003  3.6719477120460198 39.1899999999999977   T   T   F
  6.3600000000000003  3.6719477120460198 42.3800000000000026   T   T   F
  6.3600000000000003  3.6719477120460198 12.0000000000000000   F   F   F
  6.3600000000000003  3.6719477120460198 15.1900000000000013   F   F   F
  7.9500000000000002  0.9179869280115049 39.1899999999999977   T   T   F
  7.9500000000000002 11.9338300641495643 42.3800000000000026   T   T   F
  7.9500000000000002  0.9179869280115049 12.0000000000000000   F   F   F
  7.9500000000000002  0.9179869280115049 15.1900000000000013   F   F   F
 -1.5900000000000001 11.9338300641495643 39.1899999999999977   T   T   F
 -1.5900000000000001 11.9338300641495643 42.3800000000000026   T   T   F
 -1.5900000000000001 11.9338300641495643 12.0000000000000000   F   F   F
 -1.5900000000000001 11.9338300641495643 15.1900000000000013   F   F   F
 -0.0000000000000002  9.1798692801150494 39.1899999999999977   T   T   F
 -0.0000000000000002  9.1798692801150494 42.3800000000000026   T   T   F
 -0.0000000000000002  9.1798692801150494 12.0000000000000000   F   F   F
 -0.0000000000000002  9.1798692801150494 15.1900000000000013   F   F   F
  1.5900000000000001  6.4259084960805346 39.1899999999999977   T   T   F
  1.5900000000000001  6.4259084960805346 42.3800000000000026   T   T   F
  1.5900000000000001 11.9338300641495643 42.3800000000000026   T   T   F
  7.9500000000000002 11.9338300641495643 39.1899999999999977   T   T   F
