 C Cr  H Mo  S 
 1.0000000000000000
    15.9000000000000004    0.0000000000000000    0.0000000000000000
    -7.9500000000000037   13.7698039201725724    0.0000000000000000
     0.0000000000000000    0.0000000000000000   54.3800000000000026
  10   1  10  50 100
Cartesian
 12.7002747010607848  3.0709017696839997 36.6991864909090637
 12.0449119350029275  4.1238832014515321 36.0028085936732936
 -1.8261632462963979  3.4218713015369699 36.8615447426562284
 -1.6224489276445087  4.7157890409882750 36.2613219733155745
 -2.8918138407491143  5.1484308997692478 35.7243166524304030
 12.9708833796123404  2.3711247654395100 33.0450135181139970
 -1.0246729426088541  3.7049286210848340 32.9887422094447018
 13.4701888930036535  3.6773539738085241 32.6814343625270993
 -0.6636494799474549  2.4352361076225311 33.5271665534115613
 14.0737097477642319  1.6148016820407505 33.5679341766564718
 13.6744633768235264  3.3990161798651721 34.7491572077284445
 -3.0883491740481941  6.0906271132673746 35.2183910085996601
 12.8984056868254111  4.4805614080333127 32.2233434637176330
 11.9524045677643276  2.0117637674489144 32.9179246693988503
 -0.3564585820830668  4.5521194052852003 32.8543950875107313
  0.3183324749650751  2.1652363993586881 33.9111187147160038
 11.0024880825060070  4.1274562142144369 35.6924398499284834
 12.2443012312006303  2.1290229057572243 36.9974415697383421
 -1.0675023097008758  2.8112615788102637 37.3458997837457005
 -0.6933935770398371  5.2806226032016790 36.2536087739400514
 14.0262792770925220  0.6019374231897107 33.9628013153980390
  4.7700000000000005  8.2618823521035445 40.7850000000000037
 -3.1800000000000002 11.0158431361380593 13.5950000000000006
 -1.5900000000000003  8.2618823521035445 40.7850000000000037
  3.1800000000000006 11.0158431361380593 13.5950000000000006
 -1.5900000000000003  8.2618823521035445 13.5950000000000006
  3.1800000000000006 11.0158431361380593 40.7850000000000037
  0.0000000000000000  5.5079215680690297 13.5950000000000006
 12.7200000000000006  0.0000000000000000 13.5950000000000006
  1.5900000000000001  2.7539607840345148 40.7850000000000037
 12.7200000000000006  0.0000000000000000 40.7850000000000037
  1.5900000000000001  2.7539607840345148 13.5950000000000006
 -3.1800000000000002 11.0158431361380593 40.7850000000000037
  0.0000000000000000  5.5079215680690297 40.7850000000000037
  4.7700000000000005  8.2618823521035445 13.5950000000000006
  1.5899999999999999  8.2618823521035445 13.5950000000000006
  6.3600000000000003  0.0000000000000000 40.7850000000000037
  6.3600000000000012  5.5079215680690297 40.7850000000000037
  4.7700000000000005  2.7539607840345148 13.5950000000000006
  6.3600000000000012  5.5079215680690297 13.5950000000000006
  4.7700000000000005  2.7539607840345148 40.7850000000000037
  3.1800000000000002  5.5079215680690297 13.5950000000000006
  7.9500000000000011  2.7539607840345148 40.7850000000000037
  3.1800000000000002  5.5079215680690297 40.7850000000000037
  7.9500000000000011  2.7539607840345148 13.5950000000000006
  0.0000000000000000 11.0158431361380593 40.7850000000000037
  1.5899999999999999  8.2618823521035445 40.7850000000000037
  9.5400000000000009  0.0000000000000000 40.7850000000000037
  0.0000000000000000 11.0158431361380593 13.5950000000000006
  9.5400000000000009  0.0000000000000000 13.5950000000000006
  6.3600000000000003  0.0000000000000000 13.5950000000000006
 11.1300000000000008  2.7539607840345148 13.5950000000000006
  3.1800000000000002  0.0000000000000000 40.7850000000000037
  3.1800000000000002  0.0000000000000000 13.5950000000000006
  0.0000000000000000  0.0000000000000000 13.5950000000000006
  6.3600000000000003 11.0158431361380593 40.7850000000000037
  0.0000000000000000  0.0000000000000000 40.7850000000000037
  6.3600000000000003 11.0158431361380593 13.5950000000000006
 -1.5900000000000001  2.7539607840345148 13.5950000000000006
 -1.5900000000000001  2.7539607840345148 40.7850000000000037
  7.9500000000000002  8.2618823521035445 40.7850000000000037
 -3.1800000000000002  5.5079215680690297 13.5950000000000006
 -3.1800000000000002  5.5079215680690297 40.7850000000000037
 -4.7700000000000005  8.2618823521035445 13.5950000000000006
  9.5400000000000009  5.5079215680690297 40.7850000000000037
 -4.7700000000000005  8.2618823521035445 40.7850000000000037
  7.9500000000000002  8.2618823521035445 13.5950000000000006
  9.5400000000000009  5.5079215680690297 13.5950000000000006
 -6.3600000000000003 11.0158431361380593 40.7850000000000037
 -6.3600000000000003 11.0158431361380593 13.5950000000000006
 11.1300000000000008  2.7539607840345148 40.7850000000000037
 14.3100000000000005  0.9179869280115049 12.0000000000000000
  9.5400000000000009  3.6719477120460198 39.1899999999999977
  9.5400000000000009  3.6719477120460198 42.3800000000000026
  9.5400000000000009  9.1798692801150494 42.3800000000000026
  9.5400000000000009  9.1798692801150494 39.1899999999999977
  9.5400000000000009  3.6719477120460198 12.0000000000000000
  9.5400000000000009  3.6719477120460198 15.1900000000000013
 11.1300000000000008  6.4259084960805346 15.1900000000000013
 11.1300000000000008  0.9179869280115049 39.1899999999999977
 11.1300000000000008  0.9179869280115049 42.3800000000000026
 14.3100000000000005  0.9179869280115049 42.3800000000000026
  7.9500000000000002 11.9338300641495643 12.0000000000000000
 11.1300000000000008  0.9179869280115049 12.0000000000000000
 14.3100000000000005  0.9179869280115049 39.1899999999999977
 11.1300000000000008  0.9179869280115049 15.1900000000000013
 12.7200000000000006  3.6719477120460198 12.0000000000000000
 12.7200000000000006  3.6719477120460198 42.3800000000000026
  7.9500000000000002 11.9338300641495643 15.1900000000000013
  7.9500000000000011  6.4259084960805346 15.1900000000000013
  7.9500000000000011  6.4259084960805346 12.0000000000000000
  4.7700000000000005 11.9338300641495643 12.0000000000000000
  4.7700000000000005 11.9338300641495643 42.3800000000000026
  4.7700000000000005 11.9338300641495643 15.1900000000000013
 11.1300000000000008  6.4259084960805346 12.0000000000000000
  4.7700000000000005 11.9338300641495643 39.1899999999999977
  6.3600000000000003  9.1798692801150494 39.1899999999999977
  6.3600000000000003  9.1798692801150494 42.3800000000000026
 11.1300000000000008  6.4259084960805346 42.3800000000000026
  6.3600000000000003  9.1798692801150494 12.0000000000000000
 11.1300000000000008  6.4259084960805346 39.1899999999999977
  6.3600000000000003  9.1798692801150494 15.1900000000000013
 12.7200000000000006  3.6719477120460198 39.1899999999999977
 12.7200000000000006  3.6719477120460198 15.1900000000000013
  7.9500000000000011  6.4259084960805346 39.1899999999999977
  7.9500000000000011  6.4259084960805346 42.3800000000000026
  9.5400000000000009  9.1798692801150494 15.1900000000000013
 14.3100000000000005  0.9179869280115049 15.1900000000000013
  9.5400000000000009  9.1798692801150494 12.0000000000000000
  1.5900000000000001 11.9338300641495643 39.1899999999999977
  7.9500000000000002  0.9179869280115049 42.3800000000000026
  1.5900000000000001 11.9338300641495643 12.0000000000000000
  3.1800000000000002  3.6719477120460198 12.0000000000000000
  3.1800000000000002  3.6719477120460198 15.1900000000000013
  4.7700000000000005  0.9179869280115049 39.1899999999999977
  4.7700000000000005  0.9179869280115049 42.3800000000000026
  4.7700000000000005  0.9179869280115049 12.0000000000000000
  4.7700000000000005  0.9179869280115049 15.1900000000000013
 -4.7700000000000005 11.9338300641495643 39.1899999999999977
 -4.7700000000000005 11.9338300641495643 42.3800000000000026
 -4.7700000000000005 11.9338300641495643 12.0000000000000000
 -4.7700000000000005 11.9338300641495643 15.1900000000000013
 -3.1800000000000006  9.1798692801150494 39.1899999999999977
 -3.1800000000000006  9.1798692801150494 42.3800000000000026
  3.1800000000000002  3.6719477120460198 42.3800000000000026
 -3.1800000000000006  9.1798692801150494 12.0000000000000000
 -1.5900000000000001  6.4259084960805346 39.1899999999999977
 -1.5900000000000001  6.4259084960805346 42.3800000000000026
 -1.5900000000000001  6.4259084960805346 12.0000000000000000
 -1.5900000000000001  6.4259084960805346 15.1900000000000013
  0.0000000000000000  3.6719477120460198 39.1899999999999977
  0.0000000000000000  3.6719477120460198 42.3800000000000026
  0.0000000000000000  3.6719477120460198 12.0000000000000000
  0.0000000000000000  3.6719477120460198 15.1900000000000013
  1.5900000000000001  0.9179869280115049 39.1899999999999977
  1.5900000000000001  0.9179869280115049 42.3800000000000026
  1.5900000000000001  0.9179869280115049 12.0000000000000000
  1.5900000000000001  0.9179869280115049 15.1900000000000013
 -3.1800000000000006  9.1798692801150494 15.1900000000000013
  3.1800000000000002  3.6719477120460198 39.1899999999999977
  1.5900000000000001  6.4259084960805346 15.1900000000000013
  1.5900000000000001  6.4259084960805346 12.0000000000000000
  1.5900000000000001 11.9338300641495643 15.1900000000000013
  3.1799999999999997  9.1798692801150494 39.1899999999999977
  3.1799999999999997  9.1798692801150494 42.3800000000000026
  3.1799999999999997  9.1798692801150494 12.0000000000000000
  3.1799999999999997  9.1798692801150494 15.1900000000000013
  4.7700000000000005  6.4259084960805346 39.1899999999999977
  4.7700000000000005  6.4259084960805346 42.3800000000000026
  4.7700000000000005  6.4259084960805346 12.0000000000000000
  4.7700000000000005  6.4259084960805346 15.1900000000000013
  6.3600000000000003  3.6719477120460198 39.1899999999999977
  6.3600000000000003  3.6719477120460198 42.3800000000000026
  6.3600000000000003  3.6719477120460198 12.0000000000000000
  6.3600000000000003  3.6719477120460198 15.1900000000000013
  7.9500000000000002  0.9179869280115049 39.1899999999999977
  7.9500000000000002 11.9338300641495643 42.3800000000000026
  7.9500000000000002  0.9179869280115049 12.0000000000000000
  7.9500000000000002  0.9179869280115049 15.1900000000000013
 -1.5900000000000001 11.9338300641495643 39.1899999999999977
 -1.5900000000000001 11.9338300641495643 42.3800000000000026
 -1.5900000000000001 11.9338300641495643 12.0000000000000000
 -1.5900000000000001 11.9338300641495643 15.1900000000000013
 -0.0000000000000002  9.1798692801150494 39.1899999999999977
 -0.0000000000000002  9.1798692801150494 42.3800000000000026
 -0.0000000000000002  9.1798692801150494 12.0000000000000000
 -0.0000000000000002  9.1798692801150494 15.1900000000000013
  1.5900000000000001  6.4259084960805346 39.1899999999999977
  1.5900000000000001  6.4259084960805346 42.3800000000000026
  1.5900000000000001 11.9338300641495643 42.3800000000000026
  7.9500000000000002 11.9338300641495643 39.1899999999999977
