 C Cr  H Mo  S 
 1.0000000000000000
    15.9000000000000004    0.0000000000000000    0.0000000000000000
    -7.9500000000000037   13.7698039201725724    0.0000000000000000
     0.0000000000000000    0.0000000000000000   54.3800000000000026
  10   1  10  50 100
Selective dynamics
Cartesian
 -5.6505738660122296 10.1012188180332032 34.1417844950374985   T   T   T
  9.1467403048423552 10.8894614958076286 34.5730267351735989   T   T   T
 -4.6881174025419705 10.9627451854620510 33.5354327812532915   T   T   T
 -5.1960694112433767 12.3098199719480395 33.5934352759880568   T   T   T
 -6.4869241002132112 12.2581165656102069 34.2398576649777766   T   T   T
  7.8114992521676285 10.3001732984186543 31.3252570832561048   T   T   T
 -7.0904232359520325 12.2986466807218555 30.6779161160296105   T   T   T
  7.6702294669193440 11.7378624724208827 31.3539490613908178   T   T   T
 -6.2644120618484314 11.2242678956676976 30.2354530554336733   T   T   T
  9.0319700344234146  9.9975338168975245 30.6320348722818849   T   T   T
  9.3835043428715004 11.1799753954716490 32.4254568614785370   T   T   T
 -7.1325697344413754 13.1061080753333847 34.4552009107280526   T   T   T
  6.8367060340909420 12.2945895924345319 31.7749230387347552   T   T   T
  7.1077218189841371  9.5749267738094108 31.7268860110137076   T   T   T
 -6.8823445884546519 13.3575229328206611 30.5445888314412599   T   T   T
 -5.2989238611064353 11.3275813147257445 29.7437554490969447   T   T   T
  8.2365922174951915 10.5105652777299667 35.0324362766430895   T   T   T
 10.3156827526958885  9.0169363286144062 34.2045956022789781   T   T   T
 -3.7422555287282244 10.6506227337848998 33.0984712876891862   T   T   T
 -4.6816166570962370 13.2049714382495278 33.2524330662251586   T   T   T
  9.4467379655569150  9.0049803719050807 30.4681174058519062   T   T   T
  4.7700000000000005  8.2618823521035445 40.7850000000000037   T   T   F
 -3.1800000000000002 11.0158431361380593 13.5950000000000006   F   F   F
 -1.5900000000000003  8.2618823521035445 40.7850000000000037   T   T   F
  3.1800000000000006 11.0158431361380593 13.5950000000000006   F   F   F
 -1.5900000000000003  8.2618823521035445 13.5950000000000006   F   F   F
  3.1800000000000006 11.0158431361380593 40.7850000000000037   T   T   F
  0.0000000000000000  5.5079215680690297 13.5950000000000006   F   F   F
 12.7200000000000006  0.0000000000000000 13.5950000000000006   F   F   F
  1.5900000000000001  2.7539607840345148 40.7850000000000037   T   T   F
 12.7200000000000006  0.0000000000000000 40.7850000000000037   T   T   F
  1.5900000000000001  2.7539607840345148 13.5950000000000006   F   F   F
 -3.1800000000000002 11.0158431361380593 40.7850000000000037   T   T   F
  0.0000000000000000  5.5079215680690297 40.7850000000000037   T   T   F
  4.7700000000000005  8.2618823521035445 13.5950000000000006   F   F   F
  1.5899999999999999  8.2618823521035445 13.5950000000000006   F   F   F
  6.3600000000000003  0.0000000000000000 40.7850000000000037   T   T   F
  6.3600000000000012  5.5079215680690297 40.7850000000000037   T   T   F
  4.7700000000000005  2.7539607840345148 13.5950000000000006   F   F   F
  6.3600000000000012  5.5079215680690297 13.5950000000000006   F   F   F
  4.7700000000000005  2.7539607840345148 40.7850000000000037   T   T   F
  3.1800000000000002  5.5079215680690297 13.5950000000000006   F   F   F
  7.9500000000000011  2.7539607840345148 40.7850000000000037   T   T   F
  3.1800000000000002  5.5079215680690297 40.7850000000000037   T   T   F
  7.9500000000000011  2.7539607840345148 13.5950000000000006   F   F   F
  0.0000000000000000 11.0158431361380593 40.7850000000000037   T   T   F
  1.5899999999999999  8.2618823521035445 40.7850000000000037   T   T   F
  9.5400000000000009  0.0000000000000000 40.7850000000000037   T   T   F
  0.0000000000000000 11.0158431361380593 13.5950000000000006   F   F   F
  9.5400000000000009  0.0000000000000000 13.5950000000000006   F   F   F
  6.3600000000000003  0.0000000000000000 13.5950000000000006   F   F   F
 11.1300000000000008  2.7539607840345148 13.5950000000000006   F   F   F
  3.1800000000000002  0.0000000000000000 40.7850000000000037   T   T   F
  3.1800000000000002  0.0000000000000000 13.5950000000000006   F   F   F
  0.0000000000000000  0.0000000000000000 13.5950000000000006   F   F   F
  6.3600000000000003 11.0158431361380593 40.7850000000000037   T   T   F
  0.0000000000000000  0.0000000000000000 40.7850000000000037   T   T   F
  6.3600000000000003 11.0158431361380593 13.5950000000000006   F   F   F
 -1.5900000000000001  2.7539607840345148 13.5950000000000006   F   F   F
 -1.5900000000000001  2.7539607840345148 40.7850000000000037   T   T   F
  7.9500000000000002  8.2618823521035445 40.7850000000000037   T   T   F
 -3.1800000000000002  5.5079215680690297 13.5950000000000006   F   F   F
 -3.1800000000000002  5.5079215680690297 40.7850000000000037   T   T   F
 -4.7700000000000005  8.2618823521035445 13.5950000000000006   F   F   F
  9.5400000000000009  5.5079215680690297 40.7850000000000037   T   T   F
 -4.7700000000000005  8.2618823521035445 40.7850000000000037   T   T   F
  7.9500000000000002  8.2618823521035445 13.5950000000000006   F   F   F
  9.5400000000000009  5.5079215680690297 13.5950000000000006   F   F   F
 -6.3600000000000003 11.0158431361380593 40.7850000000000037   T   T   F
 -6.3600000000000003 11.0158431361380593 13.5950000000000006   F   F   F
 11.1300000000000008  2.7539607840345148 40.7850000000000037   T   T   F
 14.3100000000000005  0.9179869280115049 12.0000000000000000   F   F   F
  9.5400000000000009  3.6719477120460198 39.1899999999999977   T   T   F
  9.5400000000000009  3.6719477120460198 42.3800000000000026   T   T   F
  9.5400000000000009  9.1798692801150494 42.3800000000000026   T   T   F
  9.5400000000000009  9.1798692801150494 39.1899999999999977   T   T   F
  9.5400000000000009  3.6719477120460198 12.0000000000000000   F   F   F
  9.5400000000000009  3.6719477120460198 15.1900000000000013   F   F   F
 11.1300000000000008  6.4259084960805346 15.1900000000000013   F   F   F
 11.1300000000000008  0.9179869280115049 39.1899999999999977   T   T   F
 11.1300000000000008  0.9179869280115049 42.3800000000000026   T   T   F
 14.3100000000000005  0.9179869280115049 42.3800000000000026   T   T   F
  7.9500000000000002 11.9338300641495643 12.0000000000000000   F   F   F
 11.1300000000000008  0.9179869280115049 12.0000000000000000   F   F   F
 14.3100000000000005  0.9179869280115049 39.1899999999999977   T   T   F
 11.1300000000000008  0.9179869280115049 15.1900000000000013   F   F   F
 12.7200000000000006  3.6719477120460198 12.0000000000000000   F   F   F
 12.7200000000000006  3.6719477120460198 42.3800000000000026   T   T   F
  7.9500000000000002 11.9338300641495643 15.1900000000000013   F   F   F
  7.9500000000000011  6.4259084960805346 15.1900000000000013   F   F   F
  7.9500000000000011  6.4259084960805346 12.0000000000000000   F   F   F
  4.7700000000000005 11.9338300641495643 12.0000000000000000   F   F   F
  4.7700000000000005 11.9338300641495643 42.3800000000000026   T   T   F
  4.7700000000000005 11.9338300641495643 15.1900000000000013   F   F   F
 11.1300000000000008  6.4259084960805346 12.0000000000000000   F   F   F
  4.7700000000000005 11.9338300641495643 39.1899999999999977   T   T   F
  6.3600000000000003  9.1798692801150494 39.1899999999999977   T   T   F
  6.3600000000000003  9.1798692801150494 42.3800000000000026   T   T   F
 11.1300000000000008  6.4259084960805346 42.3800000000000026   T   T   F
  6.3600000000000003  9.1798692801150494 12.0000000000000000   F   F   F
 11.1300000000000008  6.4259084960805346 39.1899999999999977   T   T   F
  6.3600000000000003  9.1798692801150494 15.1900000000000013   F   F   F
 12.7200000000000006  3.6719477120460198 39.1899999999999977   T   T   F
 12.7200000000000006  3.6719477120460198 15.1900000000000013   F   F   F
  7.9500000000000011  6.4259084960805346 39.1899999999999977   T   T   F
  7.9500000000000011  6.4259084960805346 42.3800000000000026   T   T   F
  9.5400000000000009  9.1798692801150494 15.1900000000000013   F   F   F
 14.3100000000000005  0.9179869280115049 15.1900000000000013   F   F   F
  9.5400000000000009  9.1798692801150494 12.0000000000000000   F   F   F
  1.5900000000000001 11.9338300641495643 39.1899999999999977   T   T   F
  7.9500000000000002  0.9179869280115049 42.3800000000000026   T   T   F
  1.5900000000000001 11.9338300641495643 12.0000000000000000   F   F   F
  3.1800000000000002  3.6719477120460198 12.0000000000000000   F   F   F
  3.1800000000000002  3.6719477120460198 15.1900000000000013   F   F   F
  4.7700000000000005  0.9179869280115049 39.1899999999999977   T   T   F
  4.7700000000000005  0.9179869280115049 42.3800000000000026   T   T   F
  4.7700000000000005  0.9179869280115049 12.0000000000000000   F   F   F
  4.7700000000000005  0.9179869280115049 15.1900000000000013   F   F   F
 -4.7700000000000005 11.9338300641495643 39.1899999999999977   T   T   F
 -4.7700000000000005 11.9338300641495643 42.3800000000000026   T   T   F
 -4.7700000000000005 11.9338300641495643 12.0000000000000000   F   F   F
 -4.7700000000000005 11.9338300641495643 15.1900000000000013   F   F   F
 -3.1800000000000006  9.1798692801150494 39.1899999999999977   T   T   F
 -3.1800000000000006  9.1798692801150494 42.3800000000000026   T   T   F
  3.1800000000000002  3.6719477120460198 42.3800000000000026   T   T   F
 -3.1800000000000006  9.1798692801150494 12.0000000000000000   F   F   F
 -1.5900000000000001  6.4259084960805346 39.1899999999999977   T   T   F
 -1.5900000000000001  6.4259084960805346 42.3800000000000026   T   T   F
 -1.5900000000000001  6.4259084960805346 12.0000000000000000   F   F   F
 -1.5900000000000001  6.4259084960805346 15.1900000000000013   F   F   F
  0.0000000000000000  3.6719477120460198 39.1899999999999977   T   T   F
  0.0000000000000000  3.6719477120460198 42.3800000000000026   T   T   F
  0.0000000000000000  3.6719477120460198 12.0000000000000000   F   F   F
  0.0000000000000000  3.6719477120460198 15.1900000000000013   F   F   F
  1.5900000000000001  0.9179869280115049 39.1899999999999977   T   T   F
  1.5900000000000001  0.9179869280115049 42.3800000000000026   T   T   F
  1.5900000000000001  0.9179869280115049 12.0000000000000000   F   F   F
  1.5900000000000001  0.9179869280115049 15.1900000000000013   F   F   F
 -3.1800000000000006  9.1798692801150494 15.1900000000000013   F   F   F
  3.1800000000000002  3.6719477120460198 39.1899999999999977   T   T   F
  1.5900000000000001  6.4259084960805346 15.1900000000000013   F   F   F
  1.5900000000000001  6.4259084960805346 12.0000000000000000   F   F   F
  1.5900000000000001 11.9338300641495643 15.1900000000000013   F   F   F
  3.1799999999999997  9.1798692801150494 39.1899999999999977   T   T   F
  3.1799999999999997  9.1798692801150494 42.3800000000000026   T   T   F
  3.1799999999999997  9.1798692801150494 12.0000000000000000   F   F   F
  3.1799999999999997  9.1798692801150494 15.1900000000000013   F   F   F
  4.7700000000000005  6.4259084960805346 39.1899999999999977   T   T   F
  4.7700000000000005  6.4259084960805346 42.3800000000000026   T   T   F
  4.7700000000000005  6.4259084960805346 12.0000000000000000   F   F   F
  4.7700000000000005  6.4259084960805346 15.1900000000000013   F   F   F
  6.3600000000000003  3.6719477120460198 39.1899999999999977   T   T   F
  6.3600000000000003  3.6719477120460198 42.3800000000000026   T   T   F
  6.3600000000000003  3.6719477120460198 12.0000000000000000   F   F   F
  6.3600000000000003  3.6719477120460198 15.1900000000000013   F   F   F
  7.9500000000000002  0.9179869280115049 39.1899999999999977   T   T   F
  7.9500000000000002 11.9338300641495643 42.3800000000000026   T   T   F
  7.9500000000000002  0.9179869280115049 12.0000000000000000   F   F   F
  7.9500000000000002  0.9179869280115049 15.1900000000000013   F   F   F
 -1.5900000000000001 11.9338300641495643 39.1899999999999977   T   T   F
 -1.5900000000000001 11.9338300641495643 42.3800000000000026   T   T   F
 -1.5900000000000001 11.9338300641495643 12.0000000000000000   F   F   F
 -1.5900000000000001 11.9338300641495643 15.1900000000000013   F   F   F
 -0.0000000000000002  9.1798692801150494 39.1899999999999977   T   T   F
 -0.0000000000000002  9.1798692801150494 42.3800000000000026   T   T   F
 -0.0000000000000002  9.1798692801150494 12.0000000000000000   F   F   F
 -0.0000000000000002  9.1798692801150494 15.1900000000000013   F   F   F
  1.5900000000000001  6.4259084960805346 39.1899999999999977   T   T   F
  1.5900000000000001  6.4259084960805346 42.3800000000000026   T   T   F
  1.5900000000000001 11.9338300641495643 42.3800000000000026   T   T   F
  7.9500000000000002 11.9338300641495643 39.1899999999999977   T   T   F
