MoS2
1.000 
   3.190315390000000   0.000000000000000   0.000000000000000
  -1.595157086925583   2.762894524896298   0.000000000000000
   0.000000000000002   0.000000000000003  24.879003999999998
Mo  S   
2   4   
Cartesian
     1.5951594928489647440      0.9209639206672581846      3.7197594040560000295
    -0.0000011897745464762      1.8419306042290426451     21.1592445959439992009
    -0.0000011897745474482      1.8419306042290410907      5.2846487556559997856
     1.5951594928489658543      0.9209639206672601830     22.7241339475440007334
    -0.0000011897745476399      1.8419306042290406467      2.1548700524559998293
     1.5951594928489656322      0.9209639206672598499     19.5943552443439976685
