Co  C  H  C  H 
 1.0000000000000000
    20.0000000000000000    0.0000000000000000    0.0000000000000000
     0.0000000000000000   20.0000000000000000    0.0000000000000000
     0.0000000000000000    0.0000000000000000   20.0000000000000000
  Co   C   H   C   H
   1   5   4   5   6
Cartesian
 16.5752149639983557  3.2044150580235096 18.0337236904595457
 16.5832660172817334  4.2488389612390183 19.8438611406874763
 17.4423776435363393  4.8937916491361664 18.8978868270787679
 17.0662663529007474  2.9154671776246239 20.0422527166729374
 18.2269646001137424  2.7381030821470342 19.2220091045660659
 18.4580368181089263  3.9597357653894520 18.5134983725676676
 18.8130879544521576  1.8271462024547660 19.1280590824637748
 16.6171825215314755  2.1635795300002720 20.6867816078608762
 15.7022033526428366  4.6864735652909904 20.3068695724233486
 17.3271958724629158  5.9057892118936586 18.5168865323705987
 15.1291325222879625  3.7779148913356098 16.6410754352420653
 16.5060737113808074  1.9320972756158119 16.3807693270210351
 16.2952974229828449  3.2872942485287822 15.9697548361565573
 15.4724329613235128  1.5864899742139480 17.3098194362022930
 14.6209460915300689  2.7273820478395541 17.4693226159167203
 13.7558853595662889  2.7934197219465000 18.1245285885828871
 17.3263234295493476  1.2909784849963559 16.0672909991657882
 15.3646762442052403  0.6321110827253080 17.8199013816277798
 14.7181171279153453  4.7812774427251021 16.5591780720042863
 16.9247224516575301  3.8541548524879299 15.2878304246540058
 19.2495965805719180  4.1345397743855878 17.7887002362755737
