 C Cr  H Mo  S                          
   1.00000000000000     
    15.9000000000000004    0.0000000000000000    0.0000000000000000
    -7.9500000000000037   13.7698039201725724    0.0000000000000000
     0.0000000000000000    0.0000000000000000   32.3799999999999955
   C    Cr   H    Mo   S 
    10     1    10    50   100
Selective dynamics
Direct
  0.4391428135622383  0.4212168080774759  0.5047696229494174   T   T   T
  0.5047086471758272  0.5136409602412216  0.4867441980378219   T   T   T
  0.4719534077524510  0.3553889671156126  0.4946663202022327   T   T   T
  0.5576915408308684  0.4053719657887050  0.4701703118457625   T   T   T
  0.5790984359341872  0.5042103003041768  0.4651624435814232   T   T   T
  0.3777744438437562  0.4704529587864117  0.3993025876360267   T   T   T
  0.4378499275853651  0.3753656770448940  0.3723060808209661   T   T   T
  0.4590599513350311  0.4736860909323755  0.3778680249957849   T   T   T
  0.3450603797206811  0.3123886823899636  0.3898399661660625   T   T   T
  0.3077217280421129  0.3699684159165027  0.4066158012529769   T   T   T
  0.4449491838654530  0.4145923969692852  0.4372293327374966   T   T   T
  0.6414698476365542  0.5617602859919195  0.4491605151142300   T   T   T
  0.5233800887771951  0.5384858899503210  0.3668082911679409   T   T   T
  0.3695203907890481  0.5323442832720819  0.4072879266633400   T   T   T
  0.4851661043289795  0.3528479190938988  0.3578052328005646   T   T   T
  0.3105789630880935  0.2336914643502249  0.3918358519210500   T   T   T
  0.5002972428129825  0.5794463874908717  0.4896697102850491   T   T   T
  0.3740611071465776  0.4036837731060980  0.5223552827442316   T   T   T
  0.4352404290608116  0.2787218458441773  0.5027955499704089   T   T   T
  0.5992874790108479  0.3740936272001914  0.4574552381278028   T   T   T
  0.2387270037736950  0.3425003358750825  0.4226118656981431   T   T   T
  0.6009349493301938  0.6004598547256378  0.6543018983563514   T   T   T
  0.2000000000000028  0.7999999999999972  0.2191167387276067   F   F   F
  0.2009687890942820  0.6005147309853434  0.6544228313498137   T   T   T
  0.6000000000000014  0.7999999999999972  0.2191167387276067   F   F   F
  0.2000000000000028  0.6000000000000014  0.2191167387276067   F   F   F
  0.6009501547257390  0.8004822498097529  0.6544055593948690   T   T   T
  0.2000000000000028  0.3999999999999986  0.2191167387276067   F   F   F
  0.7999999999999972  0.0000000000000000  0.2191167387276067   F   F   F
  0.2010281647001078  0.2005740546957697  0.6542958428214855   T   T   T
  0.8009445510506944  0.0005032973829483  0.6544717716517965   T   T   T
  0.2000000000000028  0.2000000000000028  0.2191167387276067   F   F   F
  0.2009698821097285  0.8005359561399132  0.6544621621062532   T   T   T
  0.2009883306505195  0.4005111689256801  0.6543377250763375   T   T   T
  0.6000000000000014  0.6000000000000014  0.2191167387276067   F   F   F
  0.3999999999999986  0.6000000000000014  0.2191167387276067   F   F   F
  0.4009789109985961  0.0005364955527899  0.6543897115164193   T   T   T
  0.6009258912449769  0.4005434420778287  0.6542772646678587   T   T   T
  0.3999999999999986  0.2000000000000028  0.2191167387276067   F   F   F
  0.6000000000000014  0.3999999999999986  0.2191167387276067   F   F   F
  0.4010169850998412  0.2006041202454856  0.6542309366087806   T   T   T
  0.3999999999999986  0.3999999999999986  0.2191167387276067   F   F   F
  0.6009231773169261  0.2005412935887505  0.6543673511113626   T   T   T
  0.4011213683958058  0.4005944152002243  0.6541313296834256   T   T   T
  0.6000000000000014  0.2000000000000028  0.2191167387276067   F   F   F
  0.4009742741823435  0.8005303026388658  0.6544216498731766   T   T   T
  0.4010132890674419  0.6005389627289862  0.6542872853283430   T   T   T
  0.6009536391915119  0.0005210555619399  0.6544385776011208   T   T   T
  0.3999999999999986  0.7999999999999972  0.2191167387276067   F   F   F
  0.6000000000000014  0.0000000000000000  0.2191167387276067   F   F   F
  0.3999999999999986  0.0000000000000000  0.2191167387276067   F   F   F
  0.7999999999999972  0.2000000000000028  0.2191167387276067   F   F   F
  0.2009830323659890  0.0005489374270847  0.6543868336236656   T   T   T
  0.2000000000000028  0.0000000000000000  0.2191167387276067   F   F   F
  0.0000000000000000  0.0000000000000000  0.2191167387276067   F   F   F
  0.8009295277187548  0.8004792700237142  0.6544340947491007   T   T   T
  0.0009629356358348  0.0005240927091232  0.6544206205604519   T   T   T
  0.7999999999999972  0.7999999999999972  0.2191167387276067   F   F   F
  0.0000000000000000  0.2000000000000028  0.2191167387276067   F   F   F
  0.0009531187296029  0.2005181635831572  0.6544257908781096   T   T   T
  0.8009183214709740  0.6005005936021279  0.6543967801451477   T   T   T
  0.0000000000000000  0.3999999999999986  0.2191167387276067   F   F   F
  0.0009482763917954  0.4005232334994704  0.6544532785429877   T   T   T
  0.0000000000000000  0.6000000000000014  0.2191167387276067   F   F   F
  0.8009153087262332  0.4005311248919332  0.6544225388892349   T   T   T
  0.0009458101584603  0.6005145328830446  0.6544715061565000   T   T   T
  0.7999999999999972  0.6000000000000014  0.2191167387276067   F   F   F
  0.7999999999999972  0.3999999999999986  0.2191167387276067   F   F   F
  0.0009522848249192  0.8005195329072702  0.6544709727739293   T   T   T
  0.0000000000000000  0.7999999999999972  0.2191167387276067   F   F   F
  0.8009323080535686  0.2005188125338773  0.6544676972338425   T   T   T
  0.9333333333333300  0.0666666666666700  0.1698579369981488   F   F   F
  0.7343334655843218  0.2672009752293465  0.6061711652010539   T   T   T
  0.7341642367104111  0.2671903359351201  0.7026784997460011   T   T   T
  0.9341950112915466  0.6671412924868196  0.7027090547857243   T   T   T
  0.9343312069342301  0.6672044715260321  0.6062046734161775   T   T   T
  0.7333333333333343  0.2666666666666657  0.1698579369981488   F   F   F
  0.7333333333333343  0.2666666666666657  0.2683755404570718   F   F   F
  0.9333333333333371  0.4666666666666686  0.2683755404570718   F   F   F
  0.7343128651894769  0.0671929605882641  0.6062193420313350   T   T   T
  0.7342484277515425  0.0671694996824409  0.7027256025586186   T   T   T
  0.9343404884917411  0.0672060836856663  0.7027048279582349   T   T   T
  0.9333333333333371  0.8666666666666671  0.1698579369981488   F   F   F
  0.7333333333333343  0.0666666666666700  0.1698579369981488   F   F   F
  0.9342274020029727  0.0671511255473241  0.6061991008793081   T   T   T
  0.7333333333333343  0.0666666666666700  0.2683755404570718   F   F   F
  0.9333333333333300  0.2666666666666657  0.1698579369981488   F   F   F
  0.9343117876176757  0.2671859961025205  0.7027122901787423   T   T   T
  0.9333333333333371  0.8666666666666671  0.2683755404570718   F   F   F
  0.7333333333333343  0.4666666666666686  0.2683755404570718   F   F   F
  0.7333333333333343  0.4666666666666686  0.1698579369981488   F   F   F
  0.7333333333333343  0.8666666666666671  0.1698579369981488   F   F   F
  0.7342191085483443  0.8670930602175884  0.7027015720535212   T   T   T
  0.7333333333333343  0.8666666666666671  0.2683755404570718   F   F   F
  0.9333333333333371  0.4666666666666686  0.1698579369981488   F   F   F
  0.7343299171008634  0.8672111716090818  0.6061913590333060   T   T   T
  0.7343549005578545  0.6672137227440073  0.6061059582834502   T   T   T
  0.7341376592764669  0.6670599795399851  0.7026403146789146   T   T   T
  0.9342156140698634  0.4671480168661943  0.7027135980494023   T   T   T
  0.7333333333333343  0.6666666666666643  0.1698579369981488   F   F   F
  0.9342911281738582  0.4672156488016764  0.6062041931197182   T   T   T
  0.7333333333333343  0.6666666666666643  0.2683755404570718   F   F   F
  0.9342326143744202  0.2671862767788113  0.6062100202781432   T   T   T
  0.9333333333333300  0.2666666666666657  0.2683755404570718   F   F   F
  0.7343637564906763  0.4672357105469894  0.6060911989783866   T   T   T
  0.7341048213421590  0.4671332570051880  0.7026270526959972   T   T   T
  0.9333333333333371  0.6666666666666643  0.2683755404570718   F   F   F
  0.9333333333333300  0.0666666666666700  0.2683755404570718   F   F   F
  0.9333333333333371  0.6666666666666643  0.1698579369981488   F   F   F
  0.5343224073826605  0.8672127791740705  0.6061752610209257   T   T   T
  0.5342738903749554  0.0672576123816594  0.7026600923611364   T   T   T
  0.5333333333333314  0.8666666666666671  0.1698579369981488   F   F   F
  0.3333333333333357  0.2666666666666657  0.1698579369981488   F   F   F
  0.3333333333333357  0.2666666666666657  0.2683755404570718   F   F   F
  0.3342555865325573  0.0670747758001914  0.6060837057216693   T   T   T
  0.3344121263189730  0.0674078634248238  0.7025861944133851   T   T   T
  0.3333333333333357  0.0666666666666700  0.1698579369981488   F   F   F
  0.3333333333333357  0.0666666666666700  0.2683755404570718   F   F   F
  0.1342442009790552  0.8671154479207249  0.6062001213598021   T   T   T
  0.1343518192131245  0.8672909801104397  0.7027048197889051   T   T   T
  0.1333333333333329  0.8666666666666671  0.1698579369981488   F   F   F
  0.1333333333333329  0.8666666666666671  0.2683755404570718   F   F   F
  0.1342541603756045  0.6672001787142825  0.6062134107341444   T   T   T
  0.1343264548744176  0.6671721727219850  0.7027142276940421   T   T   T
  0.3344804289960150  0.2673902160890616  0.7024624776649199   T   T   T
  0.1333333333333329  0.6666666666666643  0.1698579369981488   F   F   F
  0.1342108385684125  0.4672051735019807  0.6061617358234297   T   T   T
  0.1343934832546290  0.4671466646818601  0.7026628895541308   T   T   T
  0.1333333333333329  0.4666666666666686  0.1698579369981488   F   F   F
  0.1333333333333329  0.4666666666666686  0.2683755404570718   F   F   F
  0.1341800425163943  0.2671492250164675  0.6060967249436859   T   T   T
  0.1344489523562986  0.2672275855351003  0.7026077633266827   T   T   T
  0.1333333333333329  0.2666666666666657  0.1698579369981488   F   F   F
  0.1333333333333329  0.2666666666666657  0.2683755404570718   F   F   F
  0.1342262799695152  0.0670991923598845  0.6061226859553450   T   T   T
  0.1344248639421300  0.0673475227372253  0.7026249553994297   T   T   T
  0.1333333333333329  0.0666666666666700  0.1698579369981488   F   F   F
  0.1333333333333329  0.0666666666666700  0.2683755404570718   F   F   F
  0.1333333333333329  0.6666666666666643  0.2683755404570718   F   F   F
  0.3342954509090224  0.2671779182529653  0.6059023202307677   T   T   T
  0.3333333333333357  0.4666666666666686  0.2683755404570718   F   F   F
  0.3333333333333357  0.4666666666666686  0.1698579369981488   F   F   F
  0.5333333333333314  0.8666666666666671  0.2683755404570718   F   F   F
  0.5343859292457163  0.6672511043032685  0.6060382908235094   T   T   T
  0.5342205184587204  0.6670349061498363  0.7025877713354316   T   T   T
  0.5333333333333314  0.6666666666666643  0.1698579369981488   F   F   F
  0.5333333333333314  0.6666666666666643  0.2683755404570718   F   F   F
  0.5345857169280569  0.4673520999591453  0.6059330733724058   T   T   T
  0.5341836517763631  0.4671103768742126  0.7025267941998304   T   T   T
  0.5333333333333314  0.4666666666666686  0.1698579369981488   F   F   F
  0.5333333333333314  0.4666666666666686  0.2683755404570718   F   F   F
  0.5343943689423620  0.2672356859392879  0.6059857396656804   T   T   T
  0.5341878591819943  0.2672435274850676  0.7025510469041115   T   T   T
  0.5333333333333314  0.2666666666666657  0.1698579369981488   F   F   F
  0.5333333333333314  0.2666666666666657  0.2683755404570718   F   F   F
  0.5343285559363556  0.0671662935639723  0.6061469806854713   T   T   T
  0.9342608764351987  0.8671991875833404  0.7027048454023184   T   T   T
  0.5333333333333314  0.0666666666666700  0.1698579369981488   F   F   F
  0.5333333333333314  0.0666666666666700  0.2683755404570718   F   F   F
  0.3342491863387233  0.8671477779352842  0.6061785110707275   T   T   T
  0.3343664153257803  0.8672566738268895  0.7026857324499000   T   T   T
  0.3333333333333357  0.8666666666666671  0.1698579369981488   F   F   F
  0.3333333333333357  0.8666666666666671  0.2683755404570718   F   F   F
  0.3342422881994662  0.6672645336469128  0.6061259047244208   T   T   T
  0.3343792464975244  0.6671113986668984  0.7026308045001988   T   T   T
  0.3333333333333357  0.6666666666666643  0.1698579369981488   F   F   F
  0.3333333333333357  0.6666666666666643  0.2683755404570718   F   F   F
  0.3342486536840839  0.4672516295895536  0.6059789353054138   T   T   T
  0.3344852869481799  0.4671453127893385  0.7024930918258929   T   T   T
  0.5342929516139246  0.8671385157888966  0.7026819786805156   T   T   T
  0.9342759907797488  0.8671383862556791  0.6062005598717964   T   T   T
 
  0.00000000E+00  0.00000000E+00  0.00000000E+00
  0.00000000E+00  0.00000000E+00  0.00000000E+00
  0.00000000E+00  0.00000000E+00  0.00000000E+00
  0.00000000E+00  0.00000000E+00  0.00000000E+00
  0.00000000E+00  0.00000000E+00  0.00000000E+00
  0.00000000E+00  0.00000000E+00  0.00000000E+00
  0.00000000E+00  0.00000000E+00  0.00000000E+00
  0.00000000E+00  0.00000000E+00  0.00000000E+00
  0.00000000E+00  0.00000000E+00  0.00000000E+00
  0.00000000E+00  0.00000000E+00  0.00000000E+00
  0.00000000E+00  0.00000000E+00  0.00000000E+00
  0.00000000E+00  0.00000000E+00  0.00000000E+00
  0.00000000E+00  0.00000000E+00  0.00000000E+00
  0.00000000E+00  0.00000000E+00  0.00000000E+00
  0.00000000E+00  0.00000000E+00  0.00000000E+00
  0.00000000E+00  0.00000000E+00  0.00000000E+00
  0.00000000E+00  0.00000000E+00  0.00000000E+00
  0.00000000E+00  0.00000000E+00  0.00000000E+00
  0.00000000E+00  0.00000000E+00  0.00000000E+00
  0.00000000E+00  0.00000000E+00  0.00000000E+00
  0.00000000E+00  0.00000000E+00  0.00000000E+00
  0.00000000E+00  0.00000000E+00  0.00000000E+00
  0.00000000E+00  0.00000000E+00  0.00000000E+00
  0.00000000E+00  0.00000000E+00  0.00000000E+00
  0.00000000E+00  0.00000000E+00  0.00000000E+00
  0.00000000E+00  0.00000000E+00  0.00000000E+00
  0.00000000E+00  0.00000000E+00  0.00000000E+00
  0.00000000E+00  0.00000000E+00  0.00000000E+00
  0.00000000E+00  0.00000000E+00  0.00000000E+00
  0.00000000E+00  0.00000000E+00  0.00000000E+00
  0.00000000E+00  0.00000000E+00  0.00000000E+00
  0.00000000E+00  0.00000000E+00  0.00000000E+00
  0.00000000E+00  0.00000000E+00  0.00000000E+00
  0.00000000E+00  0.00000000E+00  0.00000000E+00
  0.00000000E+00  0.00000000E+00  0.00000000E+00
  0.00000000E+00  0.00000000E+00  0.00000000E+00
  0.00000000E+00  0.00000000E+00  0.00000000E+00
  0.00000000E+00  0.00000000E+00  0.00000000E+00
  0.00000000E+00  0.00000000E+00  0.00000000E+00
  0.00000000E+00  0.00000000E+00  0.00000000E+00
  0.00000000E+00  0.00000000E+00  0.00000000E+00
  0.00000000E+00  0.00000000E+00  0.00000000E+00
  0.00000000E+00  0.00000000E+00  0.00000000E+00
  0.00000000E+00  0.00000000E+00  0.00000000E+00
  0.00000000E+00  0.00000000E+00  0.00000000E+00
  0.00000000E+00  0.00000000E+00  0.00000000E+00
  0.00000000E+00  0.00000000E+00  0.00000000E+00
  0.00000000E+00  0.00000000E+00  0.00000000E+00
  0.00000000E+00  0.00000000E+00  0.00000000E+00
  0.00000000E+00  0.00000000E+00  0.00000000E+00
  0.00000000E+00  0.00000000E+00  0.00000000E+00
  0.00000000E+00  0.00000000E+00  0.00000000E+00
  0.00000000E+00  0.00000000E+00  0.00000000E+00
  0.00000000E+00  0.00000000E+00  0.00000000E+00
  0.00000000E+00  0.00000000E+00  0.00000000E+00
  0.00000000E+00  0.00000000E+00  0.00000000E+00
  0.00000000E+00  0.00000000E+00  0.00000000E+00
  0.00000000E+00  0.00000000E+00  0.00000000E+00
  0.00000000E+00  0.00000000E+00  0.00000000E+00
  0.00000000E+00  0.00000000E+00  0.00000000E+00
  0.00000000E+00  0.00000000E+00  0.00000000E+00
  0.00000000E+00  0.00000000E+00  0.00000000E+00
  0.00000000E+00  0.00000000E+00  0.00000000E+00
  0.00000000E+00  0.00000000E+00  0.00000000E+00
  0.00000000E+00  0.00000000E+00  0.00000000E+00
  0.00000000E+00  0.00000000E+00  0.00000000E+00
  0.00000000E+00  0.00000000E+00  0.00000000E+00
  0.00000000E+00  0.00000000E+00  0.00000000E+00
  0.00000000E+00  0.00000000E+00  0.00000000E+00
  0.00000000E+00  0.00000000E+00  0.00000000E+00
  0.00000000E+00  0.00000000E+00  0.00000000E+00
  0.00000000E+00  0.00000000E+00  0.00000000E+00
  0.00000000E+00  0.00000000E+00  0.00000000E+00
  0.00000000E+00  0.00000000E+00  0.00000000E+00
  0.00000000E+00  0.00000000E+00  0.00000000E+00
  0.00000000E+00  0.00000000E+00  0.00000000E+00
  0.00000000E+00  0.00000000E+00  0.00000000E+00
  0.00000000E+00  0.00000000E+00  0.00000000E+00
  0.00000000E+00  0.00000000E+00  0.00000000E+00
  0.00000000E+00  0.00000000E+00  0.00000000E+00
  0.00000000E+00  0.00000000E+00  0.00000000E+00
  0.00000000E+00  0.00000000E+00  0.00000000E+00
  0.00000000E+00  0.00000000E+00  0.00000000E+00
  0.00000000E+00  0.00000000E+00  0.00000000E+00
  0.00000000E+00  0.00000000E+00  0.00000000E+00
  0.00000000E+00  0.00000000E+00  0.00000000E+00
  0.00000000E+00  0.00000000E+00  0.00000000E+00
  0.00000000E+00  0.00000000E+00  0.00000000E+00
  0.00000000E+00  0.00000000E+00  0.00000000E+00
  0.00000000E+00  0.00000000E+00  0.00000000E+00
  0.00000000E+00  0.00000000E+00  0.00000000E+00
  0.00000000E+00  0.00000000E+00  0.00000000E+00
  0.00000000E+00  0.00000000E+00  0.00000000E+00
  0.00000000E+00  0.00000000E+00  0.00000000E+00
  0.00000000E+00  0.00000000E+00  0.00000000E+00
  0.00000000E+00  0.00000000E+00  0.00000000E+00
  0.00000000E+00  0.00000000E+00  0.00000000E+00
  0.00000000E+00  0.00000000E+00  0.00000000E+00
  0.00000000E+00  0.00000000E+00  0.00000000E+00
  0.00000000E+00  0.00000000E+00  0.00000000E+00
  0.00000000E+00  0.00000000E+00  0.00000000E+00
  0.00000000E+00  0.00000000E+00  0.00000000E+00
  0.00000000E+00  0.00000000E+00  0.00000000E+00
  0.00000000E+00  0.00000000E+00  0.00000000E+00
  0.00000000E+00  0.00000000E+00  0.00000000E+00
  0.00000000E+00  0.00000000E+00  0.00000000E+00
  0.00000000E+00  0.00000000E+00  0.00000000E+00
  0.00000000E+00  0.00000000E+00  0.00000000E+00
  0.00000000E+00  0.00000000E+00  0.00000000E+00
  0.00000000E+00  0.00000000E+00  0.00000000E+00
  0.00000000E+00  0.00000000E+00  0.00000000E+00
  0.00000000E+00  0.00000000E+00  0.00000000E+00
  0.00000000E+00  0.00000000E+00  0.00000000E+00
  0.00000000E+00  0.00000000E+00  0.00000000E+00
  0.00000000E+00  0.00000000E+00  0.00000000E+00
  0.00000000E+00  0.00000000E+00  0.00000000E+00
  0.00000000E+00  0.00000000E+00  0.00000000E+00
  0.00000000E+00  0.00000000E+00  0.00000000E+00
  0.00000000E+00  0.00000000E+00  0.00000000E+00
  0.00000000E+00  0.00000000E+00  0.00000000E+00
  0.00000000E+00  0.00000000E+00  0.00000000E+00
  0.00000000E+00  0.00000000E+00  0.00000000E+00
  0.00000000E+00  0.00000000E+00  0.00000000E+00
  0.00000000E+00  0.00000000E+00  0.00000000E+00
  0.00000000E+00  0.00000000E+00  0.00000000E+00
  0.00000000E+00  0.00000000E+00  0.00000000E+00
  0.00000000E+00  0.00000000E+00  0.00000000E+00
  0.00000000E+00  0.00000000E+00  0.00000000E+00
  0.00000000E+00  0.00000000E+00  0.00000000E+00
  0.00000000E+00  0.00000000E+00  0.00000000E+00
  0.00000000E+00  0.00000000E+00  0.00000000E+00
  0.00000000E+00  0.00000000E+00  0.00000000E+00
  0.00000000E+00  0.00000000E+00  0.00000000E+00
  0.00000000E+00  0.00000000E+00  0.00000000E+00
  0.00000000E+00  0.00000000E+00  0.00000000E+00
  0.00000000E+00  0.00000000E+00  0.00000000E+00
  0.00000000E+00  0.00000000E+00  0.00000000E+00
  0.00000000E+00  0.00000000E+00  0.00000000E+00
  0.00000000E+00  0.00000000E+00  0.00000000E+00
  0.00000000E+00  0.00000000E+00  0.00000000E+00
  0.00000000E+00  0.00000000E+00  0.00000000E+00
  0.00000000E+00  0.00000000E+00  0.00000000E+00
  0.00000000E+00  0.00000000E+00  0.00000000E+00
  0.00000000E+00  0.00000000E+00  0.00000000E+00
  0.00000000E+00  0.00000000E+00  0.00000000E+00
  0.00000000E+00  0.00000000E+00  0.00000000E+00
  0.00000000E+00  0.00000000E+00  0.00000000E+00
  0.00000000E+00  0.00000000E+00  0.00000000E+00
  0.00000000E+00  0.00000000E+00  0.00000000E+00
  0.00000000E+00  0.00000000E+00  0.00000000E+00
  0.00000000E+00  0.00000000E+00  0.00000000E+00
  0.00000000E+00  0.00000000E+00  0.00000000E+00
  0.00000000E+00  0.00000000E+00  0.00000000E+00
  0.00000000E+00  0.00000000E+00  0.00000000E+00
  0.00000000E+00  0.00000000E+00  0.00000000E+00
  0.00000000E+00  0.00000000E+00  0.00000000E+00
  0.00000000E+00  0.00000000E+00  0.00000000E+00
  0.00000000E+00  0.00000000E+00  0.00000000E+00
  0.00000000E+00  0.00000000E+00  0.00000000E+00
  0.00000000E+00  0.00000000E+00  0.00000000E+00
  0.00000000E+00  0.00000000E+00  0.00000000E+00
  0.00000000E+00  0.00000000E+00  0.00000000E+00
  0.00000000E+00  0.00000000E+00  0.00000000E+00
  0.00000000E+00  0.00000000E+00  0.00000000E+00
  0.00000000E+00  0.00000000E+00  0.00000000E+00
  0.00000000E+00  0.00000000E+00  0.00000000E+00
  0.00000000E+00  0.00000000E+00  0.00000000E+00
  0.00000000E+00  0.00000000E+00  0.00000000E+00
  0.00000000E+00  0.00000000E+00  0.00000000E+00
  0.00000000E+00  0.00000000E+00  0.00000000E+00
  0.00000000E+00  0.00000000E+00  0.00000000E+00
