 C Cr  H Mo  S                          
   1.00000000000000     
     9.5709464550000014    0.0000000000000000    0.0000000000000000
    -6.3806280268000020   11.0515787236000005    0.0000000000000000
     0.0000000000000000    0.0000000000000000   34.8802625070458063
   C    Cr   H    Mo   S 
    10     1    10    24    48
Direct
  0.5959783921853766  0.0522914410058039  0.4232605047612264
  0.4700305819412048  0.0807634334744696  0.4278601828681829
  0.6858030329942507  0.0812337521145330  0.4579136119399833
  0.6175667798390729  0.1282232613545106  0.4845678699526526
  0.4822450766879131  0.1277259301338702  0.4661428115420261
  0.6932990733357558  0.3653260987779238  0.3945937589528458
  0.8229786127122914  0.4331031040126234  0.4533309277259968
  0.6783488662328669  0.4041960149544052  0.4325296191637283
  0.9257517738059764  0.4132049011758704  0.4285876582747866
  0.8471710429504311  0.3712195197942381  0.3926143022334641
  0.6895451425200794  0.2451169565441375  0.4358661950882261
  0.4012518896342316  0.1540897583871752  0.4791914296315122
  0.5779888929790670  0.4132106923742500  0.4430940157172629
  0.0413376642643956  0.4224392056112549  0.4365577593601885
  0.8485498033778608  0.4632148356336740  0.4829742758625993
  0.6064910247923764  0.3398952845047610  0.3713438346930692
  0.3801945259962829  0.0677582161132929  0.4064216812729257
  0.6222843366153673  0.0188151474383397  0.3971299976081201
  0.7930113673224394  0.0739563216208017  0.4627025183662440
  0.6595844313449035  0.1580856756993077  0.5136503413065588
  0.8944112645298509  0.3459672096389396  0.3681163346546449
  0.5587576774587223  0.0857903291666835  0.2527392890503758
  0.5587476616921416  0.3357657702732591  0.2525339726254422
  0.4448282880367200  0.4162824357045979  0.7497815905177754
  0.5587619154724661  0.5857725084738182  0.2526185567941308
  0.4448291663911120  0.6662828743049716  0.7497822165465138
  0.5587497827874272  0.8357851410067992  0.2527189480193924
  0.4448242024915113  0.9162779821368976  0.7497817741376427
  0.8921132759261723  0.3357765921119178  0.2525447228239646
  0.7781732365680158  0.1662861488285249  0.7497897865838942
  0.7781773152603123  0.4162902188573052  0.7497899911993887
  0.8922021815687072  0.5859254799090320  0.2524434046681854
  0.7781768718014155  0.6662892656915222  0.7497907936156367
  0.8920449248515807  0.8357842761632917  0.2526680537597271
  0.7781741110252337  0.9162865345033878  0.7497903049071439
  0.1115005088007126  0.9163023695525943  0.7497931268064790
  0.8920440206428841  0.0857415926033355  0.2527148253574015
  0.2254327154098238  0.8357422460343937  0.2526759524931911
  0.4448249604996521  0.1662789848377594  0.7497815424153661
  0.2253911928692774  0.5857542816099807  0.2526142318227361
  0.1115045385067827  0.4163064362118872  0.7497927848946948
  0.2254119258828486  0.3356436748994317  0.2526315512553126
  0.2254126943625959  0.0857222958265799  0.2527061246832498
  0.1115001897333113  0.1663027202501400  0.7497927763909658
  0.1115014087668827  0.6663040370607732  0.7497934802300806
  0.7804665021249894  0.1685143219999499  0.2972768684518076
  0.8898684947944016  0.0837262811505658  0.7943531491527976
  0.7801776011072589  0.1680990601321586  0.2081184878606318
  0.8898811928402770  0.0837315711222342  0.7052156023494066
  0.2231967915163933  0.0837404992640515  0.7052161505086493
  0.1135876757597556  0.1681633511045059  0.2081342231715897
  0.7806531868133264  0.4187729076390734  0.2968476625069852
  0.8898708966366483  0.3337280541263786  0.7943526713403405
  0.1140911315339590  0.6685262439901519  0.2079918508110411
  0.5565632253826205  0.8337472989160422  0.7052104582856960
  0.8898856987469405  0.3337362779360550  0.7052156923424320
  0.2232268578625408  0.0837521925214836  0.7943500042381029
  0.1137375481713877  0.1683426341385036  0.2972593655700964
  0.7804298668821121  0.6681703248216189  0.2971604148729810
  0.8898720671290316  0.5837287217825624  0.7943535670028001
  0.7802263859520100  0.6685386163737876  0.2080057459754437
  0.8898893936273454  0.5837394185900446  0.7052158550122368
  0.7803334683928326  0.9182583640497934  0.2972903662330870
  0.8898703743488748  0.8337272378694970  0.7943540716907640
  0.7803531050610242  0.4182513160114403  0.2079169692680445
  0.4471445147827033  0.9183721894928718  0.2081615813447189
  0.4469424580676814  0.9182551497858394  0.2973080520528557
  0.2232021934946278  0.5837478594947211  0.7052164145705589
  0.2232284406582084  0.5837538925343663  0.7943508305856846
  0.1136340456961093  0.9181936058881832  0.2972557339657138
  0.2232282929077521  0.8337529431575205  0.7943510694018209
  0.1137090751433378  0.9183177010523882  0.2081296685292576
  0.2231978049435409  0.8337426757607291  0.7052158338529741
  0.1134048290579535  0.6681381398850322  0.2971660464427440
  0.7802848846665416  0.9183626721218381  0.2081404234679555
  0.4471730484425282  0.1685255718081909  0.2972740133778380
  0.5565350686490671  0.0837371349779571  0.7943455834907742
  0.4468922699036770  0.1680496822440103  0.2081070246152816
  0.5565615180818837  0.0837461198665443  0.7052099327155607
  0.4472093506925038  0.4182906374862860  0.2971992231757487
  0.5565381263716016  0.3337392829443838  0.7943452721098563
  0.4469407781786392  0.4183189316028494  0.2080387727913596
  0.5565663511927030  0.3337501503672075  0.7052104809678237
  0.2231983044265578  0.3337443311902732  0.7052165753235434
  0.1138474277307125  0.4182750438183153  0.2080413800435989
  0.4468894725690737  0.6681592346721084  0.2972196498546159
  0.5565385478144897  0.5837387078741174  0.7943462931113076
  0.4471183260418894  0.6684431912342812  0.2080977820904117
  0.5565673128347584  0.5837526220358665  0.7052107096327797
  0.2232267347657068  0.3337527494366611  0.7943493422865713
  0.1136711496322056  0.4183100158486643  0.2971761366423965
  0.5565368080717491  0.8337389667735050  0.7943465509158757
  0.8898857048906438  0.8337345432964933  0.7052158013889432
 
  0.00000000E+00  0.00000000E+00  0.00000000E+00
  0.00000000E+00  0.00000000E+00  0.00000000E+00
  0.00000000E+00  0.00000000E+00  0.00000000E+00
  0.00000000E+00  0.00000000E+00  0.00000000E+00
  0.00000000E+00  0.00000000E+00  0.00000000E+00
  0.00000000E+00  0.00000000E+00  0.00000000E+00
  0.00000000E+00  0.00000000E+00  0.00000000E+00
  0.00000000E+00  0.00000000E+00  0.00000000E+00
  0.00000000E+00  0.00000000E+00  0.00000000E+00
  0.00000000E+00  0.00000000E+00  0.00000000E+00
  0.00000000E+00  0.00000000E+00  0.00000000E+00
  0.00000000E+00  0.00000000E+00  0.00000000E+00
  0.00000000E+00  0.00000000E+00  0.00000000E+00
  0.00000000E+00  0.00000000E+00  0.00000000E+00
  0.00000000E+00  0.00000000E+00  0.00000000E+00
  0.00000000E+00  0.00000000E+00  0.00000000E+00
  0.00000000E+00  0.00000000E+00  0.00000000E+00
  0.00000000E+00  0.00000000E+00  0.00000000E+00
  0.00000000E+00  0.00000000E+00  0.00000000E+00
  0.00000000E+00  0.00000000E+00  0.00000000E+00
  0.00000000E+00  0.00000000E+00  0.00000000E+00
  0.00000000E+00  0.00000000E+00  0.00000000E+00
  0.00000000E+00  0.00000000E+00  0.00000000E+00
  0.00000000E+00  0.00000000E+00  0.00000000E+00
  0.00000000E+00  0.00000000E+00  0.00000000E+00
  0.00000000E+00  0.00000000E+00  0.00000000E+00
  0.00000000E+00  0.00000000E+00  0.00000000E+00
  0.00000000E+00  0.00000000E+00  0.00000000E+00
  0.00000000E+00  0.00000000E+00  0.00000000E+00
  0.00000000E+00  0.00000000E+00  0.00000000E+00
  0.00000000E+00  0.00000000E+00  0.00000000E+00
  0.00000000E+00  0.00000000E+00  0.00000000E+00
  0.00000000E+00  0.00000000E+00  0.00000000E+00
  0.00000000E+00  0.00000000E+00  0.00000000E+00
  0.00000000E+00  0.00000000E+00  0.00000000E+00
  0.00000000E+00  0.00000000E+00  0.00000000E+00
  0.00000000E+00  0.00000000E+00  0.00000000E+00
  0.00000000E+00  0.00000000E+00  0.00000000E+00
  0.00000000E+00  0.00000000E+00  0.00000000E+00
  0.00000000E+00  0.00000000E+00  0.00000000E+00
  0.00000000E+00  0.00000000E+00  0.00000000E+00
  0.00000000E+00  0.00000000E+00  0.00000000E+00
  0.00000000E+00  0.00000000E+00  0.00000000E+00
  0.00000000E+00  0.00000000E+00  0.00000000E+00
  0.00000000E+00  0.00000000E+00  0.00000000E+00
  0.00000000E+00  0.00000000E+00  0.00000000E+00
  0.00000000E+00  0.00000000E+00  0.00000000E+00
  0.00000000E+00  0.00000000E+00  0.00000000E+00
  0.00000000E+00  0.00000000E+00  0.00000000E+00
  0.00000000E+00  0.00000000E+00  0.00000000E+00
  0.00000000E+00  0.00000000E+00  0.00000000E+00
  0.00000000E+00  0.00000000E+00  0.00000000E+00
  0.00000000E+00  0.00000000E+00  0.00000000E+00
  0.00000000E+00  0.00000000E+00  0.00000000E+00
  0.00000000E+00  0.00000000E+00  0.00000000E+00
  0.00000000E+00  0.00000000E+00  0.00000000E+00
  0.00000000E+00  0.00000000E+00  0.00000000E+00
  0.00000000E+00  0.00000000E+00  0.00000000E+00
  0.00000000E+00  0.00000000E+00  0.00000000E+00
  0.00000000E+00  0.00000000E+00  0.00000000E+00
  0.00000000E+00  0.00000000E+00  0.00000000E+00
  0.00000000E+00  0.00000000E+00  0.00000000E+00
  0.00000000E+00  0.00000000E+00  0.00000000E+00
  0.00000000E+00  0.00000000E+00  0.00000000E+00
  0.00000000E+00  0.00000000E+00  0.00000000E+00
  0.00000000E+00  0.00000000E+00  0.00000000E+00
  0.00000000E+00  0.00000000E+00  0.00000000E+00
  0.00000000E+00  0.00000000E+00  0.00000000E+00
  0.00000000E+00  0.00000000E+00  0.00000000E+00
  0.00000000E+00  0.00000000E+00  0.00000000E+00
  0.00000000E+00  0.00000000E+00  0.00000000E+00
  0.00000000E+00  0.00000000E+00  0.00000000E+00
  0.00000000E+00  0.00000000E+00  0.00000000E+00
  0.00000000E+00  0.00000000E+00  0.00000000E+00
  0.00000000E+00  0.00000000E+00  0.00000000E+00
  0.00000000E+00  0.00000000E+00  0.00000000E+00
  0.00000000E+00  0.00000000E+00  0.00000000E+00
  0.00000000E+00  0.00000000E+00  0.00000000E+00
  0.00000000E+00  0.00000000E+00  0.00000000E+00
  0.00000000E+00  0.00000000E+00  0.00000000E+00
  0.00000000E+00  0.00000000E+00  0.00000000E+00
  0.00000000E+00  0.00000000E+00  0.00000000E+00
  0.00000000E+00  0.00000000E+00  0.00000000E+00
  0.00000000E+00  0.00000000E+00  0.00000000E+00
  0.00000000E+00  0.00000000E+00  0.00000000E+00
  0.00000000E+00  0.00000000E+00  0.00000000E+00
  0.00000000E+00  0.00000000E+00  0.00000000E+00
  0.00000000E+00  0.00000000E+00  0.00000000E+00
  0.00000000E+00  0.00000000E+00  0.00000000E+00
  0.00000000E+00  0.00000000E+00  0.00000000E+00
  0.00000000E+00  0.00000000E+00  0.00000000E+00
  0.00000000E+00  0.00000000E+00  0.00000000E+00
  0.00000000E+00  0.00000000E+00  0.00000000E+00
