 C Cr  H Mo  S 
 1.0000000000000000
     9.5709464550000014    0.0000000000000000    0.0000000000000000
    -6.3806280268000020   11.0515787236000005    0.0000000000000000
     0.0000000000000000    0.0000000000000000   34.8802625070458063
  10   1  10  24  48
Cartesian
  5.2779767929129182  0.5979479500015270 14.9159807834116780
  3.9114279183480285  0.8763431446425719 15.1957176518558086
  6.0606764181656674  0.9985528984542308 16.0398622266984106
  5.1682382785450116  1.5307860345529327 17.0379965206260842
  3.8278000817648046  1.4545902138520137 16.5048355573421581
  4.5568067365964913  4.0720262176456927 13.7642034751451057
  5.0072366899971756  4.8191596570036790 15.9201277289670937
  3.9467209866134758  4.5125317632214346 14.9976866671105515
  6.2494239858858673  4.5769840289268080 15.2638659819417963
  5.9806677906412444  4.1155181714475608 13.9442722637578651
  5.0229262351468256  2.7462331622889296 15.3392262288275383
  2.9158340121774278  1.7604405619821206 17.0118799849032811
  2.8819029810379027  4.6286706230233152 15.1836970675710763
 -2.3367097961315619  4.6596124999416579 15.7198530424132610
  4.8853293434717431  5.1568386754164681 16.9464820951612261
  4.0361232399988349  3.7884346198251841 12.8525810233898152
  3.0792616481372175  0.7216800279100865 14.5126600914595638
  5.6653162575366443  0.2075573044828787 13.9770628026421679
  7.1427055323774811  0.9223487373646602 16.1199645229439739
  5.4490641876510173  1.8837851010608984 18.0273239481008076
  6.7285585319919310  3.8135874086738237 13.2138196868189155
  4.7854750152839500  0.9209639422765983  8.7203894212259332
  3.1903180085839504  3.6838586231765982  8.7203894212259332
  1.5951572859421390  4.6048253090076150 26.1598745039230707
  1.5951610018839504  6.4467533040765987  8.7203894212259332
  0.0000002792421390  7.3677199899076147 26.1598745039230707
  0.0000039951839503  9.2096479849765984  8.7203894212259332
 -1.5951567274578611 10.1306146708076152 26.1598745039230707
  6.3806334935839502  3.6838586231765982  8.7203894212259332
  6.3806297776421390  1.8419306281076149 26.1598745039230707
  4.7854727709421390  4.6048253090076150 26.1598745039230707
  4.7854764868839510  6.4467533040765987  8.7203894212259332
  3.1903157642421394  7.3677199899076147 26.1598745039230707
  3.1903194801839505  9.2096479849765984  8.7203894212259332
  1.5951587575421391 10.1306146708076152 26.1598745039230707
 -4.7854722124578615 10.1306146708076152 26.1598745039230707
  7.9757905002839511  0.9209639422765983  8.7203894212259332
 -3.1903114898160498  9.2096479849765984  8.7203894212259332
  3.1903142926421393  1.8419306281076149 26.1598745039230707
 -1.5951544831160498  6.4467533040765987  8.7203894212259332
 -1.5951581990578612  4.6048253090076150 26.1598745039230707
  0.0000025235839503  3.6838586231765982  8.7203894212259332
  1.5951595302839503  0.9209639422765983  8.7203894212259332
 -0.0000011923578611  1.8419306281076149 26.1598745039230707
 -3.1903152057578610  7.3677199899076147 26.1598745039230707
  6.3806297776421390  1.8419306281076149 10.2852783946298043
  7.9757905002839511  0.9209639422765983 27.7247625070458064
  6.3806297776421390  1.8419306281076149  7.1554999999999991
  7.9757905002839511  0.9209639422765983 24.5949845851170643
  1.5951595302839503  0.9209639422765983 24.5949845851170643
 -0.0000011923578611  1.8419306281076149  7.1554999999999991
  4.7854727709421390  4.6048253090076150 10.2852783946298043
  6.3806334935839502  3.6838586231765982 27.7247625070458064
 -3.1903152057578610  7.3677199899076147  7.1554999999999991
  0.0000039951839503  9.2096479849765984 24.5949845851170643
  6.3806334935839502  3.6838586231765982 24.5949845851170643
  1.5951595302839503  0.9209639422765983 27.7247625070458064
 -0.0000011923578611  1.8419306281076149 10.2852783946298043
  3.1903157642421394  7.3677199899076147 10.2852783946298043
  4.7854764868839510  6.4467533040765987 27.7247625070458064
  3.1903157642421394  7.3677199899076147  7.1554999999999991
  4.7854764868839510  6.4467533040765987 24.5949845851170643
  1.5951587575421391 10.1306146708076152 10.2852783946298043
  3.1903194801839505  9.2096479849765984 27.7247625070458064
  4.7854727709421390  4.6048253090076150  7.1554999999999991
 -1.5951567274578611 10.1306146708076152  7.1554999999999991
 -1.5951567274578611 10.1306146708076152 10.2852783946298043
 -1.5951544831160498  6.4467533040765987 24.5949845851170643
 -1.5951544831160498  6.4467533040765987 27.7247625070458064
 -4.7854722124578615 10.1306146708076152 10.2852783946298043
 -3.1903114898160498  9.2096479849765984 27.7247625070458064
 -4.7854722124578615 10.1306146708076152  7.1554999999999991
 -3.1903114898160498  9.2096479849765984 24.5949845851170643
 -3.1903152057578610  7.3677199899076147 10.2852783946298043
  1.5951587575421391 10.1306146708076152  7.1554999999999991
  3.1903142926421393  1.8419306281076149 10.2852783946298043
  4.7854750152839500  0.9209639422765983 27.7247625070458064
  3.1903142926421393  1.8419306281076149  7.1554999999999991
  4.7854750152839500  0.9209639422765983 24.5949845851170643
  1.5951572859421390  4.6048253090076150 10.2852783946298043
  3.1903180085839504  3.6838586231765982 27.7247625070458064
  1.5951572859421390  4.6048253090076150  7.1554999999999991
  3.1903180085839504  3.6838586231765982 24.5949845851170643
  0.0000025235839503  3.6838586231765982 24.5949845851170643
 -1.5951581990578612  4.6048253090076150  7.1554999999999991
  0.0000002792421390  7.3677199899076147 10.2852783946298043
  1.5951610018839504  6.4467533040765987 27.7247625070458064
  0.0000002792421390  7.3677199899076147  7.1554999999999991
  1.5951610018839504  6.4467533040765987 24.5949845851170643
  0.0000025235839503  3.6838586231765982 27.7247625070458064
 -1.5951581990578612  4.6048253090076150 10.2852783946298043
  0.0000039951839503  9.2096479849765984 27.7247625070458064
  3.1903194801839505  9.2096479849765984 24.5949845851170643
